# CELL file written 02:59:54 (GMT+1.0) 2nd June 2023 from run HACs-1

%BLOCK lattice_cart
   ANG
      0.112552701206365E-01   -8.54978259240639       0.365384454949057E-01
       20.7979386362516        4.21232363922268        8.12022079295080    
      -1.58045097316068      -0.338843813506522E-01    8.36763959543269    
%ENDBLOCK lattice_cart

%BLOCK positions_frac
   H              0.662308408844057       0.636573466017238       0.007807191388537
   H              0.564729558293681       0.734119312594376       0.010068107363977
   H              0.808793194774771       0.559816489009330       0.011834137733792
   H              0.298014984783123       0.616892821292106       0.052891884725310
   H             -0.003577955824146       0.545333668717407       0.078791931568025
   H              0.410471667172052       0.520392786120154       0.082027061077984
   H              0.789975881359061       0.447746011499683       0.094172222899353
   H              0.477095469797020       0.381835800185091       0.137797036461740
   H              0.567046255244975       0.281313661422991       0.145144549438083
   H              0.212931325658635       0.271012775728547       0.169972738918113
   H              0.062832076070656       0.726374098541202       0.188882820712848
   H              0.434530809325511       0.643347074761069       0.191265610055460
   H              0.868494268010551       0.571663244107582       0.204900785587010
   H              0.554358309416178       0.549579374602455       0.210025706513310
   H              0.671073463784161       0.473466258980983       0.227761148310617
   H              0.314524470706107       0.214943318419603       0.235512911497234
   H              0.109021558020908       0.789355131317534       0.268882622398575
   H              0.193935343386423       0.526926068589325       0.281199277484047
   H              0.008161120554637       0.447865891034269       0.283564244286545
   H              0.793636197512777       0.355339386730746       0.303448987051954
   H              0.291133330360967       0.427670707260961       0.304074007940589
   H              0.340481449698109       0.276922771897050       0.321252260491295
   H              0.945372528034244       0.736049793060153       0.339706132231117
   H              0.285567577655623       0.720278856454665       0.360805674763147
   H              0.089268185912404       0.622004444110473       0.368504576663846
   H              0.343445143066590       0.553222485895380       0.406853575273204
   H              0.897831918343921       0.476543895410683       0.419144645999115
   H              0.448333908271426       0.454364704291967       0.423706101980927
   H              0.685596851095299       0.381562571427336       0.446463791793067
   H              0.028204717927541       0.358567902975259       0.482649012739935
   H              0.827737887884976       0.262578037047937       0.482872898259855
   H              0.247905804056263       0.441479559374882       0.497272317186178
   H              0.752060864075191       0.558465344821256       0.502719996512880
   H              0.172224015181613       0.737404901656430       0.517322942933288
   H              0.971793387547269       0.641414261631006       0.517470546165193
   H              0.314406474839325       0.618421799039074       0.553623633611817
   H              0.551631863180624       0.545574832627312       0.576276372039772
   H              0.102189242989898       0.523439893067045       0.580898754040621
   H              0.656585196356310       0.446724308336183       0.593227722878941
   H              0.910744764563569       0.378002307244062       0.631583099481621
   H              0.714433529725593       0.279726624716890       0.639376101826535
   H              0.054615589697891       0.263941888274665       0.660454290018630
   H              0.659563003659626       0.723082151696603       0.678923637801037
   H              0.708816520897316       0.572297961093395       0.695884357183591
   H              0.206369131209032       0.644630115074421       0.696672312545128
   H             -0.008156915909241       0.552102901113167       0.716495391142038
   H              0.806063743512102       0.473048944680738       0.718876285449683
   H              0.890960999452687       0.210649986139940       0.731328123082047
   H              0.685542997697400       0.785056492042600       0.764696942919437
   H              0.328938380535374       0.526508054955729       0.772297152856184
   H              0.445627840833852       0.450371169016240       0.790000867499268
   H              0.131543150249459       0.428309769091906       0.795097319673299
   H              0.565502575898943       0.356614541354074       0.808871456649101
   H              0.937189677537797       0.273638666486036       0.811274559888352
   H              0.787133497119156       0.728980688514071       0.830188140919017
   H              0.433024959629775       0.718699092150539       0.855081760610302
   H              0.522910495356820       0.618171106928787       0.862280469221027
   H              0.210015378570062       0.552213987962058       0.905902252613028
   H              0.589480466592727       0.479587090712826       0.917995965304973
   H              0.003584932914840       0.454623267457082       0.921218620414004
   H              0.702011824329750       0.383097756604378       0.947214797474706
   H              0.191222798879774       0.440145310602504       0.988185405325205
   H              0.435385653762277       0.265854580856444       0.990159122537967
   H              0.337711695044878       0.363392074346876      -0.007706183228010
   C              0.456430178349826       0.357407707799958       0.036302872915016
   C              0.454671170107614       0.290246591945698       0.091434522544609
   C              0.418663394615572       0.614931165123825       0.097573578239627
   C              0.870738269223772       0.541377773333651       0.117311006999847
   C              0.430866634272551       0.550157189847984       0.172517103093193
   C              0.796039848284337       0.476005043944721       0.187819703641313
   C              0.317090827825660       0.523956848491146       0.316046487428911
   C              0.885385710711413       0.447807996973232       0.326029338228089
   C              0.326218827788636       0.458699850555523       0.389007933371931
   C              0.807504119231961       0.383010666702203       0.398831199521940
   C              0.164612333090487       0.712951745119788       0.415929252154902
   C              0.095668818670032       0.646177553051914       0.470842298662251
   C              0.904333721848983       0.353812694348003       0.529277530388436
   C              0.835379016619816       0.287043739576931       0.584241304103311
   C              0.192500668650430       0.616969286513032       0.601266508406756
   C              0.673750271697070       0.541254027115006       0.610985600410475
   C              0.114621814935151       0.552168734344325       0.674028341554702
   C              0.682909297192528       0.476005767139057       0.684002496933736
   C              0.203966100571689       0.523966064929884       0.812228820734065
   C              0.569122137677844       0.449810765421223       0.827528985067482
   C              0.129277965365986       0.458587695281119       0.882707180420855
   C              0.581357271100437       0.385044821297349       0.902531403650275
   C              0.545401238218134       0.709747001790211       0.908757509421748
   C              0.543597127056124       0.642577747055339       0.963813827069931
   N              0.323369889238615       0.262057854186249       0.211509653845383
   N              0.064158327377771       0.742661851431333       0.297091088399874
   N              0.935838237983922       0.257340729500967       0.703081334048425
   N              0.676692478645783       0.737941179638798       0.788672328890966
   I              0.165537886973424       0.135954598531131       0.031874247680418
   I              0.941240610913359       0.288927715271344       0.092416458615966
   I              0.361638700192287       0.863879490259912       0.118642913983900
   I              0.760157692413934      -0.000311387376737       0.240911788552447
   I              0.537658783650443       0.151287228774103       0.388635839549430
   I              0.647927991370231       0.710957249138080       0.393462628778689
   I             -0.009485642612596       0.863914736528535       0.489655430079275
   I              0.009511193466488       0.136087226394325       0.510534107611596
   I              0.352062162413347       0.289040798251677       0.606711604577541
   I              0.462394610716324       0.848716300955008       0.611581279514827
   I              0.239868505673914       0.000313703658085       0.759276828934331
   I              0.638373343305657       0.136125495666253       0.881562739578215
   I              0.058827063086456       0.711071626734355       0.907748737065829
   I              0.834496610758731       0.864043897475784       0.968325781758338
   Cs             0.310244548020549       0.003125866909934       0.305098644835334
   Cs             0.689791915888314      -0.003119613403405       0.695101071852219
   Pb             0.839511746831135       0.144436071274155       0.184355121382067
   Pb             0.675635649066676       0.854885524274793       0.304812088503753
   Pb             0.324380834605158       0.145116119400011       0.695383320422679
   Pb             0.160524116450242       0.855566860298178       0.815834912557499
%ENDBLOCK positions_frac

FIX_COM : true

%BLOCK species_gamma
   radsectesla
   H          267522128.0    
%ENDBLOCK species_gamma

%BLOCK species_pot
   H       1|0.6|13|15|17|10(qc=8)
   C       2|1.4|10|12|13|20:21(qc=7)
   N       2|1.1|14|16|18|20:21(qc=7)
   I       2|2.0|5|6|7|50:51
   Cs      2|2.2|4|4|5|50U:60:51(qc=5)
   Pb      3|2.2|7|8|9|50U:60:51U:61:52
%ENDBLOCK species_pot

SYMMETRY_TOL :     0.001000

%BLOCK symmetry_ops
# Symm. op. 1       E
          1.000000000000000       0.000000000000000       0.000000000000000
          0.000000000000000       1.000000000000000       0.000000000000000
          0.000000000000000       0.000000000000000       1.000000000000000
          0.000000000000000       0.000000000000000       0.000000000000000
%ENDBLOCK symmetry_ops

kpoint_mp_grid :    3   3   2

