# CELL file written 06:17:45 (GMT-0.0) 23rd February 2023 from run ButA2CsPb2I7-3

%BLOCK lattice_cart
   ANG
       4.50637667424335       -20.3503764272282        0.00000000000000    
       4.50637667424335        20.3503764272282        0.00000000000000    
       0.00000000000000        0.00000000000000        8.23019330782116    
%ENDBLOCK lattice_cart

%BLOCK cell_constraints
      1   1   3
      0   0   6
%ENDBLOCK cell_constraints

%BLOCK positions_frac
   H              0.796494507605609       0.020648868052730       0.642790229970317
   H              0.796494507605609       0.020648868052730       0.857209770029683
   H              0.979351131947270       0.203505492394391       0.142790229970317
   H              0.979351131947270       0.203505492394391       0.357209770029683
   H              0.714707951774722       0.063637466727940       0.641587765968994
   H              0.714707951774722       0.063637466727940       0.858412234031006
   H              0.936362533272060       0.285292048225278       0.141587765968993
   H              0.936362533272060       0.285292048225278       0.358412234031006
   H              0.345772108073868       0.217701284867666       0.750000000000000
   H              0.782298715132334       0.654227891926133       0.250000000000000
   H              0.893871203733773       0.807732184703838       0.148905317462293
   H              0.893871203733773       0.807732184703838       0.351094682537707
   H              0.192267815296161       0.106128796266228       0.648905317462293
   H              0.192267815296161       0.106128796266228       0.851094682537707
   H              0.404484466789261       0.372941442235208       0.641590778226045
   H              0.404484466789261       0.372941442235208       0.858409221773955
   H              0.627058557764792       0.595515533210738       0.141590778226046
   H              0.627058557764792       0.595515533210738       0.358409221773954
   H              0.137981494588664       0.176082440166400       0.642046256112671
   H              0.137981494588664       0.176082440166400       0.857953743887329
   H              0.823917559833600       0.862018505411335       0.142046256112672
   H              0.823917559833600       0.862018505411335       0.357953743887328
   H              0.767899375085026       0.881999897443165       0.750000000000000
   H              0.118000102556835       0.232100624914973       0.250000000000000
   H              0.360081288734460       0.453482346149956       0.642773591687294
   H              0.360081288734460       0.453482346149956       0.857226408312706
   H              0.546517653850044       0.639918711265540       0.142773591687294
   H              0.546517653850044       0.639918711265540       0.357226408312706
   H              0.245344221560317       0.398236431274603       0.141994467423209
   H              0.245344221560317       0.398236431274603       0.358005532576791
   H              0.601763568725397       0.754655778439683       0.641994467423209
   H              0.601763568725397       0.754655778439683       0.858005532576791
   H              0.742641131662489       0.906603379941545       0.142002271886066
   H              0.742641131662489       0.906603379941545       0.357997728113934
   H              0.093396620058455       0.257358868337511       0.642002271886066
   H              0.093396620058455       0.257358868337511       0.857997728113934
   H              0.576876358192655       0.780099831117355       0.250000000000000
   H              0.219900168882645       0.423123641807346       0.750000000000000
   H              0.202440285510064       0.481318831199354       0.142032549350324
   H              0.202440285510064       0.481318831199354       0.357967450649676
   H              0.518681168800645       0.797559714489936       0.642032549350324
   H              0.518681168800645       0.797559714489936       0.857967450649676
   H              0.149168718393390       0.552354347757291       0.148910544989078
   H              0.149168718393390       0.552354347757291       0.351089455010922
   H              0.447645652242709       0.850831281606610       0.648910544989078
   H              0.447645652242709       0.850831281606610       0.851089455010922
   H             -0.004109594743441       0.441244665586304       0.250000000000000
   H              0.558755334413695       1.004109594743441       0.750000000000000
   C              0.645929279075429      -0.009965785140980       0.750000000000000
   C              1.009965785140979       0.354070720924571       0.250000000000000
   C              0.695911989735454       0.669103134185649       0.250000000000000
   C              0.330896865814351       0.304088010264547       0.750000000000000
   C              0.212087693682319       0.248578300242838       0.750000000000000
   C              0.751421699757161       0.787912306317682       0.250000000000000
   C              0.284919467225734       0.380738626454485       0.750000000000000
   C              0.619261373545514       0.715080532774266       0.250000000000000
   C              0.171240610664437       0.328233167816771       0.250000000000000
   C              0.671766832183229       0.828759389335563       0.750000000000000
   C              0.672441264021609       0.832547883306495       0.250000000000000
   C              0.167452116693505       0.327558735978392       0.750000000000000
   C              0.723847444513413       0.945387145480061       0.750000000000000
   C              0.054612854519939       0.276152555486587       0.250000000000000
   C              0.128290647970076       0.408927978625504       0.250000000000000
   C              0.591072021374495       0.871709352029925       0.750000000000000
   N              0.260958044694909       0.175618368325924       0.750000000000000
   N              0.824381631674076       0.739041955305091       0.250000000000000
   N              0.080394938296297       0.482907916487493       0.250000000000000
   N              0.517092083512508       0.919605061703703       0.750000000000000
   I              0.756683147362880       0.243316852637120       0.000000000000000
   I              0.756683147362880       0.243316852637120       0.500000000000000
   I              0.474747245225006       0.133422392090811       0.250000000000000
   I              0.866577607909188       0.525252754774994       0.750000000000000
   I              0.584642042185024       0.415357957814976       0.000000000000000
   I              0.584642042185024       0.415357957814976       0.500000000000000
   I              0.191495744586859       0.153632594373005       0.250000000000000
   I              0.846367405626996       0.808504255413140       0.750000000000000
   I              0.150235905438012       0.505465850036483       0.750000000000000
   I              0.494534149963517       0.849764094561987       0.250000000000000
   I              0.231390548903744       0.768609451096256       0.000000000000000
   I              0.231390548903744       0.768609451096256       0.500000000000000
   I              0.109853109120919       0.890146890879081       0.000000000000000
   I              0.109853109120919       0.890146890879081       0.500000000000000
   Cs             0.881008098337669       0.539698851078367       0.250000000000000
   Cs             0.460301148921633       0.118991901662331       0.750000000000000
   Pb             0.848816880705733       0.663049005157938       0.750000000000000
   Pb             0.336950994842062       0.151183119294268       0.250000000000000
   Pb             0.004391347675934       0.507573500354602       0.750000000000000
   Pb             0.492426499645398       0.995608652324067       0.250000000000000
%ENDBLOCK positions_frac

FIX_COM : true

%BLOCK species_gamma
   radsectesla
   H          267522128.0    
%ENDBLOCK species_gamma

%BLOCK species_pot
   H       1|0.6|13|15|17|10(qc=8)
   C       2|1.4|10|12|13|20:21(qc=7)
   N       2|1.1|14|16|18|20:21(qc=7)
   I       2|2.0|5|6|7|50:51
   Cs      2|2.2|4|4|5|50U:60:51(qc=5)
   Pb      3|2.2|7|8|9|50U:60:51U:61:52
%ENDBLOCK species_pot

SYMMETRY_TOL :     0.001000

%BLOCK symmetry_ops
# Symm. op. 1       E
          1.000000000000000       0.000000000000000       0.000000000000000
          0.000000000000000       1.000000000000000       0.000000000000000
          0.000000000000000       0.000000000000000       1.000000000000000
          0.000000000000000       0.000000000000000       0.000000000000000
# Symm. op. 2       2
         -1.000000000000000       0.000000000000000       0.000000000000000
          0.000000000000000       1.000000000000000       0.000000000000000
          0.000000000000000       0.000000000000000      -1.000000000000000
          0.000000000000000       0.000000000000000       0.000000000000000
# Symm. op. 3       c
         -1.000000000000000       0.000000000000000       0.000000000000000
          0.000000000000000       1.000000000000000       0.000000000000000
          0.000000000000000       0.000000000000000       1.000000000000000
          0.000000000000000       0.000000000000000       0.500000000000000
# Symm. op. 4       m
          1.000000000000000       0.000000000000000       0.000000000000000
          0.000000000000000       1.000000000000000       0.000000000000000
          0.000000000000000       0.000000000000000      -1.000000000000000
          0.000000000000000       0.000000000000000       0.500000000000000
%ENDBLOCK symmetry_ops

kpoint_mp_grid :    3   3   2
