# CELL file written 06:53:41 (GMT-0.0) 23rd February 2023 from run ButA2CsPb2I7-4

%BLOCK lattice_cart
   ANG
       4.56711942834583       -20.6751743216302        0.00000000000000    
       4.56711942834583        20.6751743216302        0.00000000000000    
       0.00000000000000        0.00000000000000        8.41513172318049    
%ENDBLOCK lattice_cart

%BLOCK cell_constraints
      1   1   3
      0   0   6
%ENDBLOCK cell_constraints

%BLOCK positions_frac
   H              0.785067041224903       0.006403882670999       0.645182424768951
   H              0.785067041224903       0.006403882670999       0.854817575231049
   H              0.993596117329001       0.214932958775097       0.145182424768951
   H              0.993596117329001       0.214932958775097       0.354817575231048
   H              0.705792838835531       0.050117595455104       0.644146115702528
   H              0.705792838835531       0.050117595455104       0.855853884297472
   H              0.949882404544896       0.294207161164469       0.144146115702527
   H              0.949882404544896       0.294207161164469       0.355853884297473
   H              0.335712197518031       0.213327326037696       0.750000000000000
   H              0.786672673962303       0.664287802481970       0.250000000000000
   H              0.897782706266208       0.815825311814342       0.151488786959903
   H              0.897782706266208       0.815825311814342       0.348511213040097
   H              0.184174688185659       0.102217293733793       0.651488786959903
   H              0.184174688185659       0.102217293733793       0.848511213040097
   H              0.391136803285897       0.364303138294732       0.644158190844916
   H              0.391136803285897       0.364303138294732       0.855841809155084
   H              0.635696861705268       0.608863196714102       0.144158190844917
   H              0.635696861705268       0.608863196714102       0.355841809155084
   H              0.128074654736312       0.169170494160866       0.644713259793432
   H              0.128074654736312       0.169170494160866       0.855286740206568
   H              0.830829505839132       0.871925345263688       0.144713259793431
   H              0.830829505839132       0.871925345263688       0.355286740206569
   H              0.756050233705586       0.869163943974293       0.750000000000000
   H              0.130836056025707       0.243949766294413       0.250000000000000
   H              0.346419465746489       0.442594225181645       0.645230528334854
   H              0.346419465746489       0.442594225181645       0.854769471665146
   H              0.557405774818356       0.653580534253510       0.145230528334854
   H              0.557405774818356       0.653580534253510       0.354769471665146
   H              0.255910846915436       0.407459272546887       0.144416965735292
   H              0.255910846915436       0.407459272546887       0.355583034264708
   H              0.592540727453113       0.744089153084564       0.644416965735292
   H              0.592540727453113       0.744089153084564       0.855583034264708
   H              0.750812921623957       0.916403579594588       0.144473372306175
   H              0.750812921623957       0.916403579594588       0.355526627693824
   H              0.083596420405411       0.249187078376043       0.644473372306175
   H              0.083596420405411       0.249187078376043       0.855526627693825
   H              0.587453717703235       0.791721329835531       0.250000000000000
   H              0.208278670164470       0.412546282296766       0.750000000000000
   H              0.212654427217508       0.488601664045024       0.144767920030762
   H              0.212654427217508       0.488601664045024       0.355232079969236
   H              0.511398335954976       0.787345572782491       0.644767920030763
   H              0.511398335954976       0.787345572782491       0.855232079969237
   H              0.157577042670475       0.556567740831513       0.151404654439133
   H              0.157577042670475       0.556567740831513       0.348595345560867
   H              0.443432259168488       0.842422957329525       0.651404654439132
   H              0.443432259168488       0.842422957329525       0.848595345560868
   H              0.006573389687838       0.446321964495710       0.250000000000000
   H              0.553678035504290       0.993426610312161       0.750000000000000
   C              0.638570305388825      -0.021647358726693       0.750000000000000
   C              1.021647358726691       0.361429694611175       0.250000000000000
   C              0.703010870707877       0.680601968134500       0.250000000000000
   C              0.319398031865502       0.296989129292124       0.750000000000000
   C              0.200486913768936       0.240242901879586       0.750000000000000
   C              0.759757098120411       0.799513086231064       0.250000000000000
   C              0.272870632601069       0.371352591415918       0.750000000000000
   C              0.628647408584082       0.727129367398931       0.250000000000000
   C              0.183354564311452       0.338536012958855       0.250000000000000
   C              0.661463987041145       0.816645435688549       0.750000000000000
   C              0.681736194264585       0.843810234810624       0.250000000000000
   C              0.156189765189376       0.318263805735414       0.750000000000000
   C              0.713964062486902       0.932871133070455       0.750000000000000
   C              0.067128866929544       0.286035937513099       0.250000000000000
   C              0.140114389810216       0.417569190221366       0.250000000000000
   C              0.582430809778632       0.859885610189783       0.750000000000000
   N              0.251437803208888       0.170468084451517       0.750000000000000
   N              0.829531915548481       0.748562196791113       0.250000000000000
   N              0.090315044548655       0.488469234571051       0.250000000000000
   N              0.511530765428950       0.909684955451344       0.750000000000000
   I              0.763045168428183       0.236954831571817       0.000000000000000
   I              0.763045168428183       0.236954831571817       0.500000000000000
   I              0.498162176987927       0.156726499082546       0.250000000000000
   I              0.843273500917453       0.501837823012073       0.750000000000000
   I              0.578357587312120       0.421642412687879       0.000000000000000
   I              0.578357587312120       0.421642412687879       0.500000000000000
   I              0.192644270134569       0.153697780667786       0.250000000000000
   I              0.846302219332214       0.807355729865432       0.750000000000000
   I              0.148837595312561       0.504822657154653       0.750000000000000
   I              0.495177342845346       0.851162404687438       0.250000000000000
   I              0.234678492893458       0.765321507106542       0.000000000000000
   I              0.234678492893458       0.765321507106542       0.500000000000000
   I              0.106748097269309       0.893251902730690       0.000000000000000
   I              0.106748097269309       0.893251902730690       0.500000000000000
   Cs             0.921918034412748       0.580594831281396       0.250000000000000
   Cs             0.419405168718604       0.078081965587253       0.750000000000000
   Pb             0.841360273782010       0.655896515184013       0.750000000000000
   Pb             0.344103484815987       0.158639726217991       0.250000000000000
   Pb            -0.002593162029145       0.499974047472286       0.750000000000000
   Pb             0.500025952527714       1.002593162029144       0.250000000000000
%ENDBLOCK positions_frac

FIX_COM : true

%BLOCK sedc_custom_params
eV ang                                                                                                                                                                                                                                                          
Cs C6:0.0 R0:1.0                                                                                                                                                                                                                                                
Pb C6:0.0 R0:1.0                                                                                                                                                                                                                                                
%ENDBLOCK sedc_custom_params

%BLOCK species_gamma
   radsectesla
   H          267522128.0    
%ENDBLOCK species_gamma

%BLOCK species_pot
   H       1|0.6|13|15|17|10(qc=8)
   C       2|1.4|10|12|13|20:21(qc=7)
   N       2|1.1|14|16|18|20:21(qc=7)
   I       2|2.0|5|6|7|50:51
   Cs      2|2.2|4|4|5|50U:60:51(qc=5)
   Pb      3|2.2|7|8|9|50U:60:51U:61:52
%ENDBLOCK species_pot

SYMMETRY_TOL :     0.001000

%BLOCK symmetry_ops
# Symm. op. 1       E
          1.000000000000000       0.000000000000000       0.000000000000000
          0.000000000000000       1.000000000000000       0.000000000000000
          0.000000000000000       0.000000000000000       1.000000000000000
          0.000000000000000       0.000000000000000       0.000000000000000
# Symm. op. 2       2
         -1.000000000000000       0.000000000000000       0.000000000000000
          0.000000000000000       1.000000000000000       0.000000000000000
          0.000000000000000       0.000000000000000      -1.000000000000000
          0.000000000000000       0.000000000000000       0.000000000000000
# Symm. op. 3       c
         -1.000000000000000       0.000000000000000       0.000000000000000
          0.000000000000000       1.000000000000000       0.000000000000000
          0.000000000000000       0.000000000000000       1.000000000000000
          0.000000000000000       0.000000000000000       0.500000000000000
# Symm. op. 4       m
          1.000000000000000       0.000000000000000       0.000000000000000
          0.000000000000000       1.000000000000000       0.000000000000000
          0.000000000000000       0.000000000000000      -1.000000000000000
          0.000000000000000       0.000000000000000       0.500000000000000
%ENDBLOCK symmetry_ops

kpoint_mp_grid :    3   3   2

