%block LATTICE_CART
bohr
  0.042538755992104 -32.313495063709823   0.138095310070680
 39.302407996593402   7.960138029922693  15.344993376925007
 -2.986619493986986  -0.064032200683303  15.812547151904527
%endblock LATTICE_CART

%block POSITIONS_FRAC
 Pb  0.419755873415568  0.144436071274155  0.184355121382067
 Pb  0.919755873415568  0.144436071274155  0.184355121382067
 Pb  0.337817824533338  0.854885524274793  0.304812088503753
 Pb  0.837817824533338  0.854885524274793  0.304812088503753
 Pb  0.162190417302579  0.145116119400011  0.695383320422679
 Pb  0.662190417302579  0.145116119400011  0.695383320422679
 Pb  0.080262058225121  0.855566860298178  0.815834912557499
 Pb  0.580262058225121  0.855566860298178  0.815834912557499
 Cs  0.155122274010275  0.003125866909934  0.305098644835334
 Cs  0.655122274010275  0.003125866909934  0.305098644835334
 Cs  0.344895957944157  0.996880386596595  0.695101071852219
 Cs  0.844895957944157  0.996880386596595  0.695101071852219
  I  0.082768943486712  0.135954598531131  0.031874247680418
  I  0.582768943486712  0.135954598531131  0.031874247680418
  I  0.470620305456680  0.288927715271344  0.092416458615966
  I  0.970620305456679  0.288927715271344  0.092416458615966
  I  0.180819350096143  0.863879490259912  0.118642913983900
  I  0.680819350096143  0.863879490259912  0.118642913983900
  I  0.380078846206967  0.999688612623263  0.240911788552447
  I  0.880078846206967  0.999688612623263  0.240911788552447
  I  0.268829391825221  0.151287228774103  0.388635839549430
  I  0.768829391825222  0.151287228774103  0.388635839549430
  I  0.323963995685115  0.710957249138080  0.393462628778689
  I  0.823963995685116  0.710957249138080  0.393462628778689
  I  0.495257178693702  0.863914736528535  0.489655430079275
  I  0.995257178693702  0.863914736528535  0.489655430079275
  I  0.004755596733244  0.136087226394325  0.510534107611596
  I  0.504755596733244  0.136087226394325  0.510534107611596
  I  0.176031081206673  0.289040798251677  0.606711604577541
  I  0.676031081206673  0.289040798251677  0.606711604577541
  I  0.231197305358162  0.848716300955008  0.611581279514827
  I  0.731197305358162  0.848716300955008  0.611581279514827
  I  0.119934252836957  0.000313703658085  0.759276828934331
  I  0.619934252836957  0.000313703658085  0.759276828934331
  I  0.319186671652828  0.136125495666253  0.881562739578215
  I  0.819186671652828  0.136125495666253  0.881562739578215
  I  0.029413531543228  0.711071626734355  0.907748737065829
  I  0.529413531543228  0.711071626734355  0.907748737065829
  I  0.417248305379365  0.864043897475784  0.968325781758339
  I  0.917248305379366  0.864043897475784  0.968325781758338
  N  0.161684944619307  0.262057854186249  0.211509653845383
  N  0.661684944619307  0.262057854186249  0.211509653845383
  N  0.032079163688885  0.742661851431333  0.297091088399874
  N  0.532079163688886  0.742661851431333  0.297091088399874
  N  0.467919118991961  0.257340729500967  0.703081334048425
  N  0.967919118991961  0.257340729500967  0.703081334048425
  N  0.338346239322891  0.737941179638798  0.788672328890966
  N  0.838346239322892  0.737941179638798  0.788672328890966
  C  0.228215089174913  0.357407707799958  0.036302872915016
  C  0.728215089174913  0.357407707799958  0.036302872915016
  C  0.227335585053807  0.290246591945698  0.091434522544609
  C  0.727335585053807  0.290246591945698  0.091434522544609
  C  0.209331697307786  0.614931165123825  0.097573578239627
  C  0.709331697307786  0.614931165123825  0.097573578239627
  C  0.435369134611886  0.541377773333651  0.117311006999847
  C  0.935369134611886  0.541377773333651  0.117311006999847
  C  0.215433317136276  0.550157189847984  0.172517103093193
  C  0.715433317136276  0.550157189847984  0.172517103093193
  C  0.398019924142169  0.476005043944721  0.187819703641313
  C  0.898019924142169  0.476005043944721  0.187819703641313
  C  0.158545413912830  0.523956848491146  0.316046487428911
  C  0.658545413912830  0.523956848491146  0.316046487428911
  C  0.442692855355707  0.447807996973232  0.326029338228089
  C  0.942692855355707  0.447807996973232  0.326029338228089
  C  0.163109413894318  0.458699850555523  0.389007933371931
  C  0.663109413894318  0.458699850555523  0.389007933371931
  C  0.403752059615980  0.383010666702203  0.398831199521940
  C  0.903752059615980  0.383010666702203  0.398831199521940
  C  0.082306166545243  0.712951745119788  0.415929252154902
  C  0.582306166545244  0.712951745119788  0.415929252154902
  C  0.047834409335016  0.646177553051914  0.470842298662251
  C  0.547834409335016  0.646177553051914  0.470842298662251
  C  0.452166860924491  0.353812694348003  0.529277530388436
  C  0.952166860924492  0.353812694348003  0.529277530388436
  C  0.417689508309908  0.287043739576931  0.584241304103311
  C  0.917689508309908  0.287043739576931  0.584241304103311
  C  0.096250334325215  0.616969286513032  0.601266508406756
  C  0.596250334325215  0.616969286513032  0.601266508406756
  C  0.336875135848535  0.541254027115006  0.610985600410475
  C  0.836875135848535  0.541254027115006  0.610985600410475
  C  0.057310907467576  0.552168734344325  0.674028341554702
  C  0.557310907467576  0.552168734344325  0.674028341554702
  C  0.341454648596264  0.476005767139057  0.684002496933736
  C  0.841454648596264  0.476005767139057  0.684002496933736
  C  0.101983050285845  0.523966064929884  0.812228820734065
  C  0.601983050285845  0.523966064929884  0.812228820734065
  C  0.284561068838922  0.449810765421223  0.827528985067482
  C  0.784561068838922  0.449810765421223  0.827528985067482
  C  0.064638982682993  0.458587695281119  0.882707180420855
  C  0.564638982682993  0.458587695281119  0.882707180420855
  C  0.290678635550219  0.385044821297349  0.902531403650275
  C  0.790678635550219  0.385044821297349  0.902531403650275
  C  0.272700619109067  0.709747001790211  0.908757509421748
  C  0.772700619109067  0.709747001790211  0.908757509421748
  C  0.271798563528062  0.642577747055339  0.963813827069931
  C  0.771798563528062  0.642577747055339  0.963813827069931
  H  0.331154204422029  0.636573466017238  0.007807191388537
  H  0.831154204422028  0.636573466017238  0.007807191388537
  H  0.282364779146840  0.734119312594376  0.010068107363977
  H  0.782364779146840  0.734119312594376  0.010068107363977
  H  0.404396597387385  0.559816489009330  0.011834137733792
  H  0.904396597387386  0.559816489009330  0.011834137733792
  H  0.149007492391561  0.616892821292106  0.052891884725310
  H  0.649007492391561  0.616892821292106  0.052891884725310
  H  0.498211022087927  0.545333668717407  0.078791931568025
  H  0.998211022087927  0.545333668717407  0.078791931568025
  H  0.205235833586026  0.520392786120154  0.082027061077984
  H  0.705235833586026  0.520392786120154  0.082027061077984
  H  0.394987940679531  0.447746011499683  0.094172222899353
  H  0.894987940679531  0.447746011499683  0.094172222899353
  H  0.238547734898510  0.381835800185091  0.137797036461740
  H  0.738547734898510  0.381835800185091  0.137797036461740
  H  0.283523127622487  0.281313661422991  0.145144549438083
  H  0.783523127622488  0.281313661422991  0.145144549438083
  H  0.106465662829318  0.271012775728547  0.169972738918113
  H  0.606465662829318  0.271012775728547  0.169972738918113
  H  0.031416038035328  0.726374098541202  0.188882820712848
  H  0.531416038035328  0.726374098541202  0.188882820712848
  H  0.217265404662755  0.643347074761069  0.191265610055460
  H  0.717265404662756  0.643347074761069  0.191265610055460
  H  0.434247134005275  0.571663244107582  0.204900785587010
  H  0.934247134005276  0.571663244107582  0.204900785587010
  H  0.277179154708089  0.549579374602455  0.210025706513310
  H  0.777179154708089  0.549579374602455  0.210025706513310
  H  0.335536731892080  0.473466258980983  0.227761148310617
  H  0.835536731892081  0.473466258980983  0.227761148310617
  H  0.157262235353053  0.214943318419603  0.235512911497234
  H  0.657262235353054  0.214943318419603  0.235512911497234
  H  0.054510779010454  0.789355131317534  0.268882622398575
  H  0.554510779010454  0.789355131317534  0.268882622398575
  H  0.096967671693211  0.526926068589325  0.281199277484047
  H  0.596967671693212  0.526926068589325  0.281199277484047
  H  0.004080560277318  0.447865891034269  0.283564244286545
  H  0.504080560277319  0.447865891034269  0.283564244286545
  H  0.396818098756389  0.355339386730746  0.303448987051954
  H  0.896818098756389  0.355339386730746  0.303448987051954
  H  0.145566665180484  0.427670707260961  0.304074007940589
  H  0.645566665180483  0.427670707260961  0.304074007940589
  H  0.170240724849055  0.276922771897050  0.321252260491295
  H  0.670240724849054  0.276922771897050  0.321252260491295
  H  0.472686264017122  0.736049793060153  0.339706132231117
  H  0.972686264017122  0.736049793060153  0.339706132231117
  H  0.142783788827812  0.720278856454665  0.360805674763147
  H  0.642783788827812  0.720278856454665  0.360805674763147
  H  0.044634092956202  0.622004444110473  0.368504576663846
  H  0.544634092956202  0.622004444110473  0.368504576663846
  H  0.171722571533295  0.553222485895380  0.406853575273204
  H  0.671722571533295  0.553222485895380  0.406853575273204
  H  0.448915959171960  0.476543895410683  0.419144645999115
  H  0.948915959171960  0.476543895410683  0.419144645999115
  H  0.224166954135713  0.454364704291967  0.423706101980927
  H  0.724166954135713  0.454364704291967  0.423706101980927
  H  0.342798425547649  0.381562571427336  0.446463791793067
  H  0.842798425547649  0.381562571427336  0.446463791793067
  H  0.014102358963770  0.358567902975259  0.482649012739935
  H  0.514102358963770  0.358567902975259  0.482649012739935
  H  0.413868943942488  0.262578037047937  0.482872898259855
  H  0.913868943942488  0.262578037047937  0.482872898259855
  H  0.123952902028131  0.441479559374882  0.497272317186178
  H  0.623952902028132  0.441479559374882  0.497272317186178
  H  0.376030432037596  0.558465344821256  0.502719996512880
  H  0.876030432037596  0.558465344821256  0.502719996512880
  H  0.086112007590807  0.737404901656430  0.517322942933288
  H  0.586112007590807  0.737404901656430  0.517322942933288
  H  0.485896693773635  0.641414261631006  0.517470546165193
  H  0.985896693773635  0.641414261631006  0.517470546165193
  H  0.157203237419662  0.618421799039074  0.553623633611817
  H  0.657203237419662  0.618421799039074  0.553623633611817
  H  0.275815931590312  0.545574832627312  0.576276372039772
  H  0.775815931590312  0.545574832627312  0.576276372039772
  H  0.051094621494949  0.523439893067045  0.580898754040621
  H  0.551094621494949  0.523439893067045  0.580898754040621
  H  0.328292598178155  0.446724308336183  0.593227722878941
  H  0.828292598178155  0.446724308336183  0.593227722878941
  H  0.455372382281785  0.378002307244062  0.631583099481621
  H  0.955372382281785  0.378002307244062  0.631583099481621
  H  0.357216764862797  0.279726624716890  0.639376101826535
  H  0.857216764862797  0.279726624716890  0.639376101826535
  H  0.027307794848945  0.263941888274665  0.660454290018630
  H  0.527307794848945  0.263941888274665  0.660454290018630
  H  0.329781501829813  0.723082151696603  0.678923637801037
  H  0.829781501829813  0.723082151696603  0.678923637801037
  H  0.354408260448658  0.572297961093395  0.695884357183591
  H  0.854408260448658  0.572297961093395  0.695884357183591
  H  0.103184565604516  0.644630115074421  0.696672312545128
  H  0.603184565604516  0.644630115074421  0.696672312545128
  H  0.495921542045379  0.552102901113167  0.716495391142038
  H  0.995921542045380  0.552102901113167  0.716495391142038
  H  0.403031871756051  0.473048944680738  0.718876285449683
  H  0.903031871756051  0.473048944680738  0.718876285449683
  H  0.445480499726344  0.210649986139940  0.731328123082047
  H  0.945480499726344  0.210649986139940  0.731328123082047
  H  0.342771498848700  0.785056492042600  0.764696942919437
  H  0.842771498848700  0.785056492042600  0.764696942919437
  H  0.164469190267687  0.526508054955729  0.772297152856184
  H  0.664469190267687  0.526508054955729  0.772297152856184
  H  0.222813920416926  0.450371169016240  0.790000867499268
  H  0.722813920416926  0.450371169016240  0.790000867499268
  H  0.065771575124730  0.428309769091906  0.795097319673299
  H  0.565771575124730  0.428309769091906  0.795097319673299
  H  0.282751287949472  0.356614541354074  0.808871456649101
  H  0.782751287949472  0.356614541354074  0.808871456649101
  H  0.468594838768899  0.273638666486036  0.811274559888352
  H  0.968594838768899  0.273638666486036  0.811274559888352
  H  0.393566748559578  0.728980688514071  0.830188140919017
  H  0.893566748559578  0.728980688514071  0.830188140919017
  H  0.216512479814888  0.718699092150539  0.855081760610302
  H  0.716512479814888  0.718699092150539  0.855081760610302
  H  0.261455247678410  0.618171106928787  0.862280469221027
  H  0.761455247678410  0.618171106928787  0.862280469221027
  H  0.105007689285031  0.552213987962058  0.905902252613028
  H  0.605007689285031  0.552213987962058  0.905902252613028
  H  0.294740233296364  0.479587090712826  0.917995965304973
  H  0.794740233296364  0.479587090712826  0.917995965304973
  H  0.001792466457420  0.454623267457082  0.921218620414004
  H  0.501792466457420  0.454623267457082  0.921218620414004
  H  0.351005912164875  0.383097756604378  0.947214797474706
  H  0.851005912164875  0.383097756604378  0.947214797474706
  H  0.095611399439887  0.440145310602504  0.988185405325205
  H  0.595611399439887  0.440145310602504  0.988185405325205
  H  0.217692826881138  0.265854580856444  0.990159122537967
  H  0.717692826881138  0.265854580856444  0.990159122537967
  H  0.168855847522439  0.363392074346876  0.992293816771990
  H  0.668855847522439  0.363392074346876  0.992293816771990
%endblock POSITIONS_FRAC

%block SYMMETRY_OPS
  1.000000000000000   0.000000000000000   0.000000000000000
  0.000000000000000   1.000000000000000   0.000000000000000
  0.000000000000000   0.000000000000000   1.000000000000000
  0.000000000000000   0.000000000000000   0.000000000000000

  1.000000000000000   0.000000000000000   0.000000000000000
  0.000000000000000   1.000000000000000   0.000000000000000
  0.000000000000000   0.000000000000000   1.000000000000000
  0.500000000000000   0.000000000000000   0.000000000000000
%endblock SYMMETRY_OPS
