# CELL file written 22:46:04 (GMT+1.0) 13th June 2023 from run HAMA-5

%BLOCK lattice_cart
   ANG
       22.9129544000000       0.157215000000000E-01  -0.440318700000000    
       21.2364733000000        8.51003690000000      -0.435472200000000    
      -1.64658310000000      -0.313568200000000        8.44193000000000    
%ENDBLOCK lattice_cart

%BLOCK positions_frac
   H              0.912503000000000       0.465167000000000       0.010362000000000
   H              0.650401000000000       0.794537000000000       0.043380000000000
   H              0.314449000000000       0.701874000000000       0.061471000000000
   H              0.749918000000000       0.806394000000000       0.067255000000000
   H              0.949540000000000       0.324676000000000       0.075992000000000
   H              0.083611000000000       0.704544000000000       0.071678000000000
   H              0.928332000000000       0.803599000000000       0.078329000000000
   H              0.269008000000000       0.454506000000000       0.095967000000000
   H              0.106173000000000       0.416869000000000       0.101065000000000
   H              0.552038000000000       0.992668000000000       0.125487000000000
   H              0.964927000000000       0.672727000000000       0.152324000000000
   H              0.556165000000000       0.800196000000000       0.162479000000000
   H              0.307545000000000       0.312749000000000       0.173361000000000
   H              0.799601000000000       0.671382000000000       0.195157000000000
   H              0.448899000000000       0.562239000000000       0.199197000000000
   H              0.198291000000000       0.746956000000000       0.224284000000000
   H              0.134651000000000       0.295324000000000       0.224101000000000
   H              0.362310000000000       0.709731000000000       0.225789000000000
   H              0.417118000000000       0.849071000000000       0.241644000000000
   H              0.444166000000000       0.007593000000000       0.242711000000000
   H              0.105876000000000       0.904909000000000       0.250590000000000
   H              0.991357000000000       0.559386000000000       0.259548000000000
   H              0.148935000000000       0.587232000000000       0.263331000000000
   H              0.707990000000000       0.863162000000000       0.272484000000000
   H              0.326985000000000       0.202422000000000       0.301760000000000
   H              0.690537000000000       0.690717000000000       0.328462000000000
   H              0.198845000000000       0.446424000000000       0.339959000000000
   H              0.331232000000000       0.033922000000000       0.350042000000000
   H              0.006447000000000       0.450238000000000       0.372240000000000
   H              0.248169000000000       0.757456000000000       0.397607000000000
   H              0.589053000000000       0.890294000000000       0.399039000000000
   H              0.549875000000000       0.729243000000000       0.409301000000000
   H              0.670573000000000       0.052237000000000       0.418089000000000
   H              0.201166000000000       0.070171000000000       0.426294000000000
   H              0.192482000000000       0.251514000000000       0.428986000000000
   H              0.300505000000000       0.914526000000000       0.434363000000000
   H              0.206221000000000       0.349342000000000       0.455751000000000
   H              0.530781000000000       0.088741000000000       0.486451000000000
   H              0.469353000000000       0.911269000000000       0.513323000000000
   H              0.793859000000000       0.650826000000000       0.544065000000000
   H              0.699464000000000       0.085657000000000       0.565058000000000
   H              0.807538000000000       0.748703000000000       0.570860000000000
   H              0.798850000000000       0.929989000000000       0.573299000000000
   H              0.329460000000000       0.947849000000000       0.581448000000000
   H              0.450116000000000       0.270907000000000       0.590165000000000
   H              0.411066000000000       0.109782000000000       0.600873000000000
   H              0.752009000000000       0.242574000000000       0.602014000000000
   H              0.993593000000000       0.549992000000000       0.627651000000000
   H              0.668823000000000       0.966245000000000       0.649823000000000
   H              0.801285000000000       0.553684000000000       0.659760000000000
   H              0.309496000000000       0.309430000000000       0.671210000000000
   H              0.673105000000000       0.797711000000000       0.698094000000000
   H              0.292181000000000       0.136897000000000       0.727548000000000
   H              0.851284000000000       0.412766000000000       0.736280000000000
   H              0.008773000000000       0.440729000000000       0.740195000000000
   H              0.894184000000000       0.095065000000000       0.748932000000000
   H              0.555921000000000       0.992571000000000       0.757217000000000
   H              0.582832000000000       0.151201000000000       0.757889000000000
   H              0.637662000000000       0.290459000000000       0.773709000000000
   H              0.865322000000000       0.704943000000000       0.775758000000000
   H              0.802112000000000       0.252768000000000       0.775489000000000
   H              0.551220000000000       0.437843000000000       0.800286000000000
   H              0.200478000000000       0.328759000000000       0.804708000000000
   H              0.692636000000000       0.687286000000000       0.826416000000000
   H              0.443803000000000       0.200072000000000       0.837237000000000
   H              0.035263000000000       0.327292000000000       0.847292000000000
   H              0.448100000000000       0.007471000000000       0.874571000000000
   H              0.893989000000000       0.583190000000000       0.898732000000000
   H              0.731170000000000       0.545523000000000       0.903617000000000
   H              0.071843000000000       0.196446000000000       0.921378000000000
   H              0.916592000000000       0.295449000000000       0.927870000000000
   H              0.050531000000000       0.675427000000000       0.923633000000000
   H              0.250209000000000       0.193745000000000       0.932760000000000
   H              0.685555000000000       0.298259000000000       0.938064000000000
   H              0.349660000000000       0.205668000000000       0.956496000000000
   H              0.087746000000000       0.534780000000000       0.989313000000000
   C              0.088525000000000       0.556855000000000       0.116250000000000
   C              0.148346000000000       0.564683000000000       0.137039000000000
   C              0.672138000000000       0.867736000000000       0.156590000000000
   C              0.678361000000000       0.796243000000000       0.163081000000000
   C              0.186684000000000       0.430816000000000       0.216992000000000
   C              0.114109000000000       0.438203000000000       0.222144000000000
   C              0.214875000000000       0.779775000000000       0.269969000000000
   C              0.565577000000000       0.884093000000000       0.278641000000000
   C              0.572498000000000       0.811941000000000       0.285071000000000
   C              0.202807000000000       0.323477000000000       0.335316000000000
   C              0.130956000000000       0.330093000000000       0.340532000000000
   C              0.439666000000000       0.850025000000000       0.367683000000000
   C              0.447081000000000       0.910244000000000       0.386720000000000
   C              0.552978000000000       0.089886000000000       0.613027000000000
   C              0.560331000000000       0.150155000000000       0.631880000000000
   C              0.869071000000000       0.670124000000000       0.659327000000000
   C              0.797279000000000       0.676674000000000       0.664515000000000
   C              0.427532000000000       0.188238000000000       0.714676000000000
   C              0.434503000000000       0.116051000000000       0.721238000000000
   C              0.785309000000000       0.220171000000000       0.729645000000000
   C              0.886031000000000       0.561891000000000       0.777635000000000
   C              0.813482000000000       0.569243000000000       0.782742000000000
   C              0.321723000000000       0.203912000000000       0.836824000000000
   C              0.327995000000000       0.132385000000000       0.843416000000000
   C              0.851844000000000       0.435334000000000       0.862576000000000
   C              0.911678000000000       0.443150000000000       0.883409000000000
   N              0.046467000000000       0.694639000000000       0.047522000000000
   N              0.342081000000000       0.683000000000000       0.183914000000000
   N              0.310248000000000       0.951876000000000       0.457631000000000
   N              0.689758000000000       0.048272000000000       0.541902000000000
   N              0.657976000000000       0.317105000000000       0.815617000000000
   N              0.953690000000000       0.305402000000000       0.952106000000000
   I              0.638722000000000       0.504454000000000      -0.000042000000000
   I              0.636298000000000       0.072784000000000       0.122852000000000
   I              0.140328000000000       0.001979000000000       0.126078000000000
   I              0.733124000000000       0.266988000000000       0.238119000000000
   I              0.931647000000000       0.359784000000000       0.370746000000000
   I              0.981388000000000       0.875620000000000       0.379214000000000
   I              0.483587000000000       0.369183000000000       0.498042000000000
   I              0.516474000000000       0.630923000000000       0.501480000000000
   I              0.018721000000000       0.124447000000000       0.620399000000000
   I              0.068382000000000       0.640377000000000       0.628882000000000
   I              0.266982000000000       0.733094000000000       0.761425000000000
   I              0.859764000000000       0.998105000000000       0.873478000000000
   I              0.363852000000000       0.927261000000000       0.876705000000000
   I              0.361443000000000       0.495552000000000       0.999593000000000
   Pb             0.671993000000000       0.179998000000000       0.185489000000000
   Pb             0.830324000000000       0.318136000000000       0.315608000000000
   Pb             0.169772000000000       0.681954000000000       0.683994000000000
   Pb             0.328172000000000       0.820033000000000       0.814099000000000
%ENDBLOCK positions_frac

FIX_COM : true

%BLOCK species_gamma
   radsectesla
   H          267522128.0    
%ENDBLOCK species_gamma

%BLOCK species_pot
   H       1|0.6|13|15|17|10(qc=8)
   C       2|1.4|10|12|13|20:21(qc=7)
   N       2|1.1|14|16|18|20:21(qc=7)
   I       2|2.0|5|6|7|50:51
   Pb      3|2.2|7|8|9|50U:60:51U:61:52
%ENDBLOCK species_pot

SYMMETRY_TOL :     0.001000

%BLOCK symmetry_ops
# Symm. op. 1       E
          1.000000000000000       0.000000000000000       0.000000000000000
          0.000000000000000       1.000000000000000       0.000000000000000
          0.000000000000000       0.000000000000000       1.000000000000000
          0.000000000000000       0.000000000000000       0.000000000000000
%ENDBLOCK symmetry_ops

kpoint_mp_grid :    3   3   3

