%block LATTICE_CART
bohr
  0.021269377996052 -16.156747531854911   0.069047655035340
 81.612704865169846  -0.172439271326222  14.946487256980829
 -2.986619493986986  -0.064032200683303  15.812547151904527
%endblock LATTICE_CART

%block POSITIONS_FRAC
  H  0.284228175037503  0.723932945517135  0.007497189803679
  H  0.917388265703506  0.214154884545953  0.009252204219252
  H  0.612857271944977  0.821673537380535  0.012939147435994
  H  0.220442256325732  0.225185584508120  0.015186452007388
  H  0.577297976730487  0.713835353630481  0.017909361571069
  H  0.884054073671822  0.322315057537211  0.018987370082339
  H  0.065684353057509  0.263254027477865  0.035551180334048
  H  0.298021927811325  0.361541075848301  0.040464713649338
  H  0.430472309091761  0.763463034294663  0.044662311778709
  H  0.199645026800055  0.863187049270601  0.052069869983449
  H  0.196448869361008  0.631289018523969  0.114161916783823
  H  0.302458363334055  0.132927290428222  0.123086412966189
  H  0.994815565381631  0.690781285713668  0.137245077506735
  H  0.510462946027561  0.191548878302189  0.138763675776895
  H  0.776273299186299  0.227311633728541  0.148530254142545
  H  0.721151556125443  0.727182352145983  0.150888454126910
  H  0.293014751676100  0.392528246021300  0.157225188940737
  H  0.159559970638579  0.738271947705342  0.157416593704457
  H  0.349686921236314  0.239793545356413  0.157789510661386
  H  0.348920766439911  0.679283951487630  0.161932964227565
  H  0.214343992362141  0.894677565658767  0.163560188057342
  H  0.213824941892426  0.309085553464394  0.171366022685421
  H  0.156015657871440  0.181696037173438  0.173989853945428
  H  0.278265963857168  0.811002222055237  0.179506798719082
  H  0.933908384589033  0.276106993981029  0.182009246594057
  H  0.566833900118900  0.776611242947690  0.183464818220894
  H  0.422643152862121  0.364490344257036  0.194678485176052
  H  0.077347631504168  0.868024896530077  0.207731028761194
  H  0.971150143578522  0.220072655301252  0.208258060626457
  H  0.073675413554506  0.359349546075270  0.214431306685572
  H  0.527166024368822  0.720739779687441  0.218012096873619
  H  0.425428149428291  0.860139428227333  0.220945102990479
  H  0.074570217367148  0.639863312358445  0.279239414184980
  H  0.972828191664563  0.779232672410628  0.281952668923508
  H  0.426389424533480  0.140656830711496  0.285801380149578
  H  0.528884950270106  0.279908244504665  0.291742382238457
  H  0.422644645560559  0.631970944137333  0.292425234155962
  H  0.077424937794362  0.135506387864274  0.305479126782386
  H  0.933223042188219  0.723362154168092  0.316589877047032
  H  0.566102875609220  0.223873005749842  0.318045228649194
  H  0.221743610941538  0.689001153622031  0.320584253103652
  H  0.344021675835438  0.318286733008619  0.326093924397156
  H  0.286177569704475  0.190917900092546  0.328714936554285
  H  0.285636006382717  0.605324993069970  0.336653116152017
  H  0.151086256731766  0.820707130815503  0.338177676980696
  H  0.150275274111975  0.260196393060077  0.342223454138061
  H  0.340469296456376  0.761719946533522  0.342618700574143
  H  0.207052811496305  0.107471659209802  0.342984570707036
  H  0.778844446866968  0.772787416313656  0.349063788353428
  H  0.723755209817151  0.272666834358704  0.351458765926728
  H  0.989568574137070  0.308446410646053  0.361338295371363
  H  0.505195575319788  0.809210899519537  0.362834533131355
  H  0.197669901996493  0.367059656297188  0.377127763661165
  H  0.303521564353398  0.868702450828215  0.386025393761503
  H  0.300370344294779  0.636819333243018  0.448093893131370
  H  0.069539271171733  0.736524472340369  0.455400757790052
  H  0.202020063749584  0.138461385948525  0.459713646439820
  H  0.434340334293670  0.236733129490492  0.464494277801109
  H  0.615966504147404  0.177669693365373  0.481118680417327
  H  0.922667540350619  0.786148980546697  0.482033337730289
  H  0.279568622114951  0.274789687301228  0.484815393814538
  H  0.887195305221906  0.678307270677037  0.487178727326138
  H  0.582662645956760  0.285831622053791  0.490732407640801
  H  0.215791633534176  0.776051450556584  0.492546841698622
  H  0.784228175037503  0.223932945517135  0.507497189803679
  H  0.417388265703506  0.714154884545953  0.509252204219252
  H  0.112857271944977  0.321673537380535  0.512939147435995
  H  0.720442256325732  0.725185584508120  0.515186452007388
  H  0.077297976730486  0.213835353630481  0.517909361571070
  H  0.384054073671822  0.822315057537211  0.518987370082339
  H  0.565684353057509  0.763254027477865  0.535551180334048
  H  0.798021927811325  0.861541075848302  0.540464713649338
  H  0.930472309091761  0.263463034294663  0.544662311778709
  H  0.699645026800055  0.363187049270601  0.552069869983449
  H  0.696448869361007  0.131289018523969  0.614161916783823
  H  0.802458363334055  0.632927290428222  0.623086412966189
  H  0.494815565381631  0.190781285713668  0.637245077506735
  H  0.010462946027561  0.691548878302189  0.638763675776895
  H  0.276273299186299  0.727311633728541  0.648530254142546
  H  0.221151556125443  0.227182352145984  0.650888454126911
  H  0.793014751676100  0.892528246021300  0.657225188940738
  H  0.659559970638580  0.238271947705342  0.657416593704456
  H  0.849686921236314  0.739793545356413  0.657789510661386
  H  0.848920766439912  0.179283951487630  0.661932964227564
  H  0.714343992362141  0.394677565658767  0.663560188057342
  H  0.713824941892427  0.809085553464394  0.671366022685420
  H  0.656015657871440  0.681696037173438  0.673989853945428
  H  0.778265963857168  0.311002222055237  0.679506798719082
  H  0.433908384589033  0.776106993981029  0.682009246594057
  H  0.066833900118900  0.276611242947690  0.683464818220894
  H  0.922643152862121  0.864490344257036  0.694678485176052
  H  0.577347631504168  0.368024896530077  0.707731028761194
  H  0.471150143578522  0.720072655301252  0.708258060626457
  H  0.573675413554506  0.859349546075270  0.714431306685572
  H  0.027166024368822  0.220739779687441  0.718012096873619
  H  0.925428149428291  0.360139428227333  0.720945102990480
  H  0.574570217367148  0.139863312358445  0.779239414184980
  H  0.472828191664563  0.279232672410628  0.781952668923508
  H  0.926389424533480  0.640656830711496  0.785801380149578
  H  0.028884950270106  0.779908244504665  0.791742382238457
  H  0.922644645560558  0.131970944137333  0.792425234155963
  H  0.577424937794362  0.635506387864273  0.805479126782386
  H  0.433223042188219  0.223362154168092  0.816589877047033
  H  0.066102875609220  0.723873005749842  0.818045228649194
  H  0.721743610941538  0.189001153622031  0.820584253103652
  H  0.844021675835438  0.818286733008619  0.826093924397156
  H  0.786177569704475  0.690917900092546  0.828714936554285
  H  0.785636006382717  0.105324993069970  0.836653116152017
  H  0.651086256731766  0.320707130815503  0.838177676980696
  H  0.650275274111975  0.760196393060077  0.842223454138061
  H  0.840469296456376  0.261719946533523  0.842618700574144
  H  0.707052811496305  0.607471659209802  0.842984570707035
  H  0.278844446866968  0.272787416313656  0.849063788353428
  H  0.223755209817151  0.772666834358704  0.851458765926729
  H  0.489568574137070  0.808446410646053  0.861338295371363
  H  0.005195575319788  0.309210899519537  0.862834533131354
  H  0.697669901996493  0.867059656297188  0.877127763661165
  H  0.803521564353398  0.368702450828215  0.886025393761503
  H  0.800370344294779  0.136819333243018  0.948093893131370
  H  0.569539271171733  0.236524472340369  0.955400757790052
  H  0.702020063749584  0.638461385948525  0.959713646439820
  H  0.934340334293670  0.736733129490491  0.964494277801108
  H  0.115966504147404  0.677669693365373  0.981118680417327
  H  0.422667540350618  0.286148980546698  0.982033337730289
  H  0.779568622114951  0.774789687301228  0.984815393814538
  H  0.387195305221906  0.178307270677037  0.987178727326138
  H  0.082662645956760  0.785831622053791  0.990732407640801
  H  0.715791633534176  0.276051450556584  0.992546841698622
  C  0.161481712224797  0.723903998486616  0.049933336714705
  C  0.344216754967233  0.224905382710612  0.052434367778093
  C  0.941983068106747  0.261983032464942  0.074211853199007
  C  0.555112403580087  0.761978424245573  0.078024911674484
  C  0.115998785880859  0.691505333351102  0.090336532873041
  C  0.388834860451763  0.192522410648675  0.095053814298949
  C  0.899984117725426  0.229293847640560  0.112001028061415
  C  0.596868902510875  0.729349925277762  0.118357858649693
  C  0.227427374674981  0.676906347174002  0.206183877562437
  C  0.277726324449847  0.178703853899979  0.215006726814995
  C  0.191857146831351  0.643521869788466  0.227763173891776
  C  0.309547874134765  0.145123295972849  0.236557818517458
  C  0.190527737323029  0.354873500895105  0.263631010316853
  C  0.308136460530593  0.856475872559894  0.272405124714796
  C  0.222308253528454  0.321288873527670  0.285102700597601
  C  0.272580042144075  0.823088776525957  0.293931075188208
  C  0.903123258139567  0.770627013557503  0.381612613967978
  C  0.600049382556947  0.270688886666826  0.387999893666672
  C  0.111197812053660  0.307465582561913  0.405039160801539
  C  0.384016025393914  0.808484643256516  0.409751151663272
  C  0.944906413623000  0.738002883569529  0.422005380503264
  C  0.558037326311977  0.238002521972361  0.425822225613673
  C  0.155788039348559  0.275078594923992  0.447595698017185
  C  0.338537447762988  0.776084367172163  0.450112708726865
  C  0.661481712224797  0.223903998486616  0.549933336714705
  C  0.844216754967233  0.724905382710612  0.552434367778094
  C  0.441983068106747  0.761983032464942  0.574211853199007
  C  0.055112403580087  0.261978424245573  0.578024911674484
  C  0.615998785880859  0.191505333351102  0.590336532873041
  C  0.888834860451763  0.692522410648675  0.595053814298949
  C  0.399984117725427  0.729293847640559  0.612001028061415
  C  0.096868902510874  0.229349925277762  0.618357858649693
  C  0.727427374674982  0.176906347174002  0.706183877562437
  C  0.777726324449847  0.678703853899979  0.715006726814995
  C  0.691857146831350  0.143521869788466  0.727763173891776
  C  0.809547874134765  0.645123295972849  0.736557818517458
  C  0.690527737323029  0.854873500895106  0.763631010316854
  C  0.808136460530593  0.356475872559894  0.772405124714796
  C  0.722308253528455  0.821288873527670  0.785102700597601
  C  0.772580042144075  0.323088776525957  0.793931075188208
  C  0.403123258139567  0.270627013557503  0.881612613967978
  C  0.100049382556946  0.770688886666826  0.887999893666672
  C  0.611197812053660  0.807465582561912  0.905039160801539
  C  0.884016025393914  0.308484643256516  0.909751151663272
  C  0.444906413623000  0.238002883569529  0.922005380503264
  C  0.058037326311977  0.738002521972361  0.925822225613673
  C  0.655788039348559  0.775078594923992  0.947595698017185
  C  0.838537447762989  0.276084367172163  0.950112708726865
  N  0.307721888826384  0.368970589819399  0.157642918710365
  N  0.192827401662104  0.871330925715667  0.168422014115540
  N  0.307167873233439  0.628670364750484  0.331751698798909
  N  0.192340962145490  0.131028927093125  0.342538580938508
  N  0.807721888826384  0.868970589819399  0.657642918710365
  N  0.692827401662104  0.371330925715667  0.668422014115540
  N  0.807167873233439  0.128670364750484  0.831751698798908
  N  0.692340962145491  0.631028927093125  0.842538580938508
  I  0.038036460238820  0.424358150477504  0.035939429992331
  I  0.429698955062331  0.931939745129956  0.050582659113856
  I  0.441467580269326  0.568043613197163  0.078577720808759
  I  0.097560587707858  0.067977299265566  0.099851546945983
  I  0.796776753277687  0.144463857635672  0.236880316251638
  I  0.760313386102303  0.999844306311631  0.240756094864079
  I  0.792449366801191  0.855478624569040  0.248941253347729
  I  0.707541763287509  0.644520399125839  0.251232003703380
  I  0.739711653844871  0.500156851829043  0.259433680763373
  I  0.703291249719278  0.355535813367178  0.263284550433007
  I  0.402474662020839  0.432021948737892  0.400347730496230
  I  0.058556989123136  0.931957368264268  0.421612798343543
  I  0.070310595472530  0.568062747833127  0.449625487411341
  I  0.462015169263391  0.075643614387052  0.464279453936482
  I  0.538036460238820  0.924358150477504  0.535939429992331
  I  0.929698955062331  0.431939745129956  0.550582659113856
  I  0.941467580269325  0.068043613197162  0.578577720808758
  I  0.597560587707859  0.567977299265566  0.599851546945983
  I  0.296776753277687  0.644463857635672  0.736880316251638
  I  0.260313386102303  0.499844306311632  0.740756094864079
  I  0.292449366801191  0.355478624569040  0.748941253347729
  I  0.207541763287508  0.144520399125839  0.751232003703380
  I  0.239711653844872  0.000156851829043  0.759433680763374
  I  0.203291249719279  0.855535813367178  0.763284550433007
  I  0.902474662020839  0.932021948737892  0.900347730496230
  I  0.558556989123136  0.431957368264268  0.921612798343542
  I  0.570310595472530  0.068062747833127  0.949625487411341
  I  0.962015169263392  0.575643614387052  0.964279453936482
 Cs  0.191351722590017  0.498440193298298  0.193541265150516
 Cs  0.308681614565582  0.001562933454967  0.306661578290301
 Cs  0.691351722590017  0.998440193298298  0.693541265150516
 Cs  0.808681614565582  0.501562933454967  0.806661578290301
 Pb  0.748192886929279  0.927442762137397  0.232254850641150
 Pb  0.732740686301153  0.427783430149089  0.243618342706588
 Pb  0.767293711194058  0.072218035637078  0.256573157019145
 Pb  0.751822774905152  0.572558059700006  0.267941380122684
 Pb  0.248192886929279  0.427442762137397  0.732254850641150
 Pb  0.232740686301153  0.927783430149089  0.743618342706588
 Pb  0.267293711194057  0.572218035637078  0.756573157019144
 Pb  0.251822774905153  0.072558059700006  0.767941380122685
%endblock POSITIONS_FRAC

%block SYMMETRY_OPS
  1.000000000000000   0.000000000000000   0.000000000000000
  0.000000000000000   1.000000000000000   0.000000000000000
  0.000000000000000   0.000000000000000   1.000000000000000
  0.000000000000000   0.000000000000000   0.000000000000000

  1.000000000000000   0.000000000000000   0.000000000000000
  0.000000000000000   1.000000000000000   0.000000000000000
  0.000000000000000   0.000000000000000   1.000000000000000
  0.500000000000000   0.500000000000000   0.500000000000000
%endblock SYMMETRY_OPS
