# CELL file written 23:42:00 (GMT-0.0) 18th February 2023 from run ButA2CsPb2I7

%BLOCK lattice_cart
   ANG
       4.50583308083046       -20.0432855058863        0.00000000000000    
       4.50583308083046        20.0432855058863        0.00000000000000    
       0.00000000000000        0.00000000000000        8.02155465620738    
%ENDBLOCK lattice_cart

%BLOCK cell_constraints
      1   1   3
      0   0   6
%ENDBLOCK cell_constraints

%BLOCK positions_frac
   H              0.802356832956651       0.023892575319379       0.640078096958656
   H              0.802356832956651       0.023892575319379       0.859921903041344
   H              0.976107424680621       0.197643167043348       0.140078096958656
   H              0.976107424680621       0.197643167043348       0.359921903041344
   H              0.715742734305149       0.062019572447531       0.638855743044941
   H              0.715742734305149       0.062019572447531       0.861144256955059
   H              0.937980427552469       0.284257265694851       0.138855743044941
   H              0.937980427552469       0.284257265694851       0.361144256955059
   H              0.346756887680934       0.221069841091198       0.750000000000000
   H              0.778930158908802       0.653243112319067       0.250000000000000
   H              0.894168546826614       0.809794185937037       0.145891167992923
   H              0.894168546826614       0.809794185937037       0.354108832007076
   H              0.190205814062963       0.105831453173386       0.645891167992923
   H              0.190205814062963       0.105831453173386       0.854108832007077
   H              0.397745280294263       0.370860563218978       0.638745296422908
   H              0.397745280294263       0.370860563218978       0.861254703577092
   H              0.629139436781022       0.602254719705737       0.138745296422908
   H              0.629139436781022       0.602254719705737       0.361254703577092
   H              0.128497797483197       0.168967623610486       0.639302394602763
   H              0.128497797483197       0.168967623610486       0.860697605397237
   H              0.831032376389515       0.871502202516803       0.139302394602763
   H              0.831032376389515       0.871502202516803       0.360697605397237
   H              0.782349720848010       0.891578884518586       0.750000000000000
   H              0.108421115481414       0.217650279151990       0.250000000000000
   H              0.344326945050262       0.444134914319595       0.639911243832549
   H              0.344326945050262       0.444134914319595       0.860088756167451
   H              0.555865085680405       0.655673054949738       0.139911243832549
   H              0.555865085680405       0.655673054949738       0.360088756167451
   H              0.238913955674259       0.385464138575232       0.138923475839821
   H              0.238913955674259       0.385464138575232       0.361076524160179
   H              0.614535861424767       0.761086044325741       0.638923475839821
   H              0.614535861424767       0.761086044325741       0.861076524160179
   H              0.758997769550731       0.926193592459373       0.139047950055461
   H              0.758997769550731       0.926193592459373       0.360952049944539
   H              0.073806407540627       0.241002230449269       0.639047950055461
   H              0.073806407540627       0.241002230449269       0.860952049944539
   H              0.595266715240706       0.804985391780436       0.250000000000000
   H              0.195014608219564       0.404733284759294       0.750000000000000
   H              0.202710618700578       0.476973234877799       0.139200843183480
   H              0.202710618700578       0.476973234877799       0.360799156816519
   H              0.523026765122201       0.797289381299422       0.639200843183480
   H              0.523026765122201       0.797289381299422       0.860799156816520
   H              0.152206058196703       0.551987604117725       0.145966236403110
   H              0.152206058196703       0.551987604117725       0.354033763596890
   H              0.448012395882275       0.847793941803297       0.645966236403110
   H              0.448012395882275       0.847793941803297       0.854033763596890
   H             -0.002128880731387       0.441119715688265       0.250000000000000
   H              0.558880284311735       1.002128880731387       0.750000000000000
   C              0.646714114180990      -0.012126632891392       0.750000000000000
   C              1.012126632891392       0.353285885819010       0.250000000000000
   C              0.699033224337158       0.676033184653829       0.250000000000000
   C              0.323966815346170       0.300966775662842       0.750000000000000
   C              0.202586424546142       0.242404084070199       0.750000000000000
   C              0.757595915929801       0.797413575453858       0.250000000000000
   C              0.269294544768265       0.370376545255818       0.750000000000000
   C              0.629623454744183       0.730705455231735       0.250000000000000
   C              0.164515443512459       0.316402305483722       0.250000000000000
   C              0.683597694516278       0.835484556487541       0.750000000000000
   C              0.687705441150939       0.852199085791704       0.250000000000000
   C              0.147800914208296       0.312294558849061       0.750000000000000
   C              0.729820558179149       0.947854298829985       0.750000000000000
   C              0.052145701170015       0.270179441820851       0.250000000000000
   C              0.128115293445328       0.404725695112451       0.250000000000000
   C              0.595274304887549       0.871884706554672       0.750000000000000
   N              0.258897968834606       0.175908948840214       0.750000000000000
   N              0.824091051159786       0.741102031165394       0.250000000000000
   N              0.082781982714765       0.482309467711092       0.250000000000000
   N              0.517690532288908       0.917218017285236       0.750000000000000
   I              0.760058823110116       0.239941176889884       0.000000000000000
   I              0.760058823110116       0.239941176889884       0.500000000000000
   I              0.503111276447037       0.161428946710798       0.250000000000000
   I              0.838571053289202       0.496888723552963       0.750000000000000
   I              0.580756070565960       0.419243929434040       0.000000000000000
   I              0.580756070565960       0.419243929434040       0.500000000000000
   I              0.185070844024463       0.145979091797540       0.250000000000000
   I              0.854020908202460       0.814929155975537       0.750000000000000
   I              0.159329646368455       0.515010180240111       0.750000000000000
   I              0.484989819759889       0.840670353631545       0.250000000000000
   I              0.229374986800241       0.770625013199759       0.000000000000000
   I              0.229374986800241       0.770625013199759       0.500000000000000
   I              0.111610011892825       0.888389988107175       0.000000000000000
   I              0.111610011892825       0.888389988107175       0.500000000000000
   Cs             0.914207047279895       0.573032935282522       0.250000000000000
   Cs             0.426967064717478       0.085792952720105       0.750000000000000
   Pb             0.846625398961597       0.659469381858263       0.750000000000000
   Pb             0.340530618141738       0.153374601038403       0.250000000000000
   Pb             0.001883259546292       0.505841412559288       0.750000000000000
   Pb             0.494158587440712       0.998116740453708       0.250000000000000
%ENDBLOCK positions_frac

FIX_COM : true

%BLOCK species_gamma
   radsectesla
   H          267522128.0    
%ENDBLOCK species_gamma

%BLOCK species_pot
   H       1|0.6|13|15|17|10(qc=8)
   C       2|1.4|10|12|13|20:21(qc=7)
   N       2|1.1|14|16|18|20:21(qc=7)
   I       2|2.0|5|6|7|50:51
   Cs      2|2.2|4|4|5|50U:60:51(qc=5)
   Pb      3|2.2|7|8|9|50U:60:51U:61:52
%ENDBLOCK species_pot

SYMMETRY_TOL :     0.001000

%BLOCK symmetry_ops
# Symm. op. 1       E
          1.000000000000000       0.000000000000000       0.000000000000000
          0.000000000000000       1.000000000000000       0.000000000000000
          0.000000000000000       0.000000000000000       1.000000000000000
          0.000000000000000       0.000000000000000       0.000000000000000
# Symm. op. 2       2
         -1.000000000000000       0.000000000000000       0.000000000000000
          0.000000000000000       1.000000000000000       0.000000000000000
          0.000000000000000       0.000000000000000      -1.000000000000000
          0.000000000000000       0.000000000000000       0.000000000000000
# Symm. op. 3       c
         -1.000000000000000       0.000000000000000       0.000000000000000
          0.000000000000000       1.000000000000000       0.000000000000000
          0.000000000000000       0.000000000000000       1.000000000000000
          0.000000000000000       0.000000000000000       0.500000000000000
# Symm. op. 4       m
          1.000000000000000       0.000000000000000       0.000000000000000
          0.000000000000000       1.000000000000000       0.000000000000000
          0.000000000000000       0.000000000000000      -1.000000000000000
          0.000000000000000       0.000000000000000       0.500000000000000
%ENDBLOCK symmetry_ops

kpoint_mp_grid :    3   3   2

