# CELL file written 12:29:43 (GMT-0.0) 23rd February 2023 from run ButA2CsPb2I7-4

%BLOCK lattice_cart
   ANG
       4.50937406978060       -20.7817474308113        0.00000000000000    
       4.50937406978060        20.7817474308113        0.00000000000000    
       0.00000000000000        0.00000000000000        8.46782795951788    
%ENDBLOCK lattice_cart

%BLOCK cell_constraints
      1   1   3
      0   0   6
%ENDBLOCK cell_constraints

%BLOCK positions_frac
   H              0.793985279446452       0.020848096554267       0.645934763638428
   H              0.793985279446452       0.020848096554267       0.854065236361572
   H              0.979151903445733       0.206014720553548       0.145934763638428
   H              0.979151903445733       0.206014720553548       0.354065236361572
   H              0.714768199646230       0.063918775052846       0.644833409904633
   H              0.714768199646230       0.063918775052846       0.855166590095367
   H              0.936081224947154       0.285231800353770       0.144833409904633
   H              0.936081224947154       0.285231800353770       0.355166590095367
   H              0.347968040882452       0.221628957083585       0.750000000000000
   H              0.778371042916415       0.652031959117548       0.250000000000000
   H              0.892288611583444       0.806172939734024       0.151842197841620
   H              0.892288611583444       0.806172939734024       0.348157802158380
   H              0.193827060265976       0.107711388416556       0.651842197841620
   H              0.193827060265976       0.107711388416556       0.848157802158380
   H              0.404538125331001       0.373193911680015       0.644801982249743
   H              0.404538125331001       0.373193911680015       0.855198017750257
   H              0.626806088319985       0.595461874668999       0.144801982249744
   H              0.626806088319985       0.595461874668999       0.355198017750256
   H              0.137580620185737       0.173518104560474       0.645333702665685
   H              0.137580620185737       0.173518104560474       0.854666297334315
   H              0.826481895439526       0.862419379814263       0.145333702665685
   H              0.826481895439526       0.862419379814263       0.354666297334315
   H              0.764657899245544       0.883804181658019       0.750000000000000
   H              0.116195818341980       0.235342100754456       0.250000000000000
   H              0.358696270022905       0.449894529703565       0.645901254984639
   H              0.358696270022905       0.449894529703565       0.854098745015361
   H              0.550105470296435       0.641303729977095       0.145901254984639
   H              0.550105470296435       0.641303729977095       0.354098745015361
   H              0.244232324522189       0.401195930646548       0.145030055000313
   H              0.244232324522189       0.401195930646548       0.354969944999687
   H              0.598804069353452       0.755767675477811       0.645030055000313
   H              0.598804069353452       0.755767675477811       0.854969944999687
   H              0.748151149312544       0.907834154270165       0.145043529350722
   H              0.748151149312544       0.907834154270165       0.354956470649278
   H              0.092165845729835       0.251848850687456       0.645043529350722
   H              0.092165845729835       0.251848850687456       0.854956470649278
   H              0.583128250979449       0.781612640778379       0.250000000000000
   H              0.218387359221621       0.416871749020551       0.750000000000000
   H              0.202200624630390       0.483192044596301       0.145323597655717
   H              0.202200624630390       0.483192044596301       0.354676402344283
   H              0.516807955403699       0.797799375369610       0.645323597655717
   H              0.516807955403699       0.797799375369610       0.854676402344283
   H              0.147822040692594       0.551168705515815       0.151829032268838
   H              0.147822040692594       0.551168705515815       0.348170967731162
   H              0.448831294484185       0.852177959307406       0.651829032268838
   H              0.448831294484185       0.852177959307406       0.848170967731162
   H             -0.005924196390299       0.437913138038617       0.250000000000000
   H              0.562086861961383       1.005924196390299       0.750000000000000
   C              0.645615780147494      -0.009773690463497       0.750000000000000
   C              1.009773690463497       0.354384219852506       0.250000000000000
   C              0.696118082534581       0.669073789131186       0.250000000000000
   C              0.330926210868814       0.303881917465419       0.750000000000000
   C              0.211680380897433       0.246344761665758       0.750000000000000
   C              0.753655238334242       0.788319619102567       0.250000000000000
   C              0.283623961964666       0.376899898353545       0.750000000000000
   C              0.623100101646455       0.716376038035334       0.250000000000000
   C              0.170229252755589       0.331286786455995       0.250000000000000
   C              0.668713213544005       0.829770747244411       0.750000000000000
   C              0.677834083359849       0.833925882676798       0.250000000000000
   C              0.166074117323202       0.322165916640151       0.750000000000000
   C              0.721203582562062       0.945597539035782       0.750000000000000
   C              0.054402460964218       0.278796417437938       0.250000000000000
   C              0.128001394267855       0.410563077497688       0.250000000000000
   C              0.589436922502312       0.871998605732145       0.750000000000000
   N              0.262337652526659       0.177389735884542       0.750000000000000
   N              0.822610264115458       0.737662347473341       0.250000000000000
   N              0.079264162366985       0.481559522794313       0.250000000000000
   N              0.518440477205687       0.920735837633016       0.750000000000000
   I              0.758223086952322       0.241776913047678       0.000000000000000
   I              0.758223086952322       0.241776913047678       0.500000000000000
   I              0.496809964841530       0.155152986295809       0.250000000000000
   I              0.844847013704191       0.503190035158470       0.750000000000000
   I              0.583231189073449       0.416768810926551       0.000000000000000
   I              0.583231189073449       0.416768810926551       0.500000000000000
   I              0.193434614172900       0.149152505174210       0.250000000000000
   I              0.850847494825790       0.806565385827100       0.750000000000000
   I              0.148349283509486       0.509308650516284       0.750000000000000
   I              0.490691349483716       0.851650716490514       0.250000000000000
   I              0.231672805838735       0.768327194161264       0.000000000000000
   I              0.231672805838735       0.768327194161264       0.500000000000000
   I              0.109981768002399       0.890018231997601       0.000000000000000
   I              0.109981768002399       0.890018231997601       0.500000000000000
   Cs             0.920283126387297       0.578712062466055       0.250000000000000
   Cs             0.421287937533945       0.079716873612703       0.750000000000000
   Pb             0.846672576660949       0.657508407505014       0.750000000000000
   Pb             0.342491592494986       0.153327423339051       0.250000000000000
   Pb            -0.000761938486127       0.505051928491082       0.750000000000000
   Pb             0.494948071508917       1.000761938486127       0.250000000000000
%ENDBLOCK positions_frac

FIX_COM : true

%BLOCK species_gamma
   radsectesla
   H          267522128.0    
%ENDBLOCK species_gamma

%BLOCK species_pot
   H       1|0.6|13|15|17|10(qc=8)
   C       2|1.4|10|12|13|20:21(qc=7)
   N       2|1.1|14|16|18|20:21(qc=7)
   I       2|2.0|5|6|7|50:51
   Cs      2|2.2|4|4|5|50U:60:51(qc=5)
   Pb      3|2.2|7|8|9|50U:60:51U:61:52
%ENDBLOCK species_pot

SYMMETRY_TOL :     0.001000

%BLOCK symmetry_ops
# Symm. op. 1       E
          1.000000000000000       0.000000000000000       0.000000000000000
          0.000000000000000       1.000000000000000       0.000000000000000
          0.000000000000000       0.000000000000000       1.000000000000000
          0.000000000000000       0.000000000000000       0.000000000000000
# Symm. op. 2       2
         -1.000000000000000       0.000000000000000       0.000000000000000
          0.000000000000000       1.000000000000000       0.000000000000000
          0.000000000000000       0.000000000000000      -1.000000000000000
          0.000000000000000       0.000000000000000       0.000000000000000
# Symm. op. 3       c
         -1.000000000000000       0.000000000000000       0.000000000000000
          0.000000000000000       1.000000000000000       0.000000000000000
          0.000000000000000       0.000000000000000       1.000000000000000
          0.000000000000000       0.000000000000000       0.500000000000000
# Symm. op. 4       m
          1.000000000000000       0.000000000000000       0.000000000000000
          0.000000000000000       1.000000000000000       0.000000000000000
          0.000000000000000       0.000000000000000      -1.000000000000000
          0.000000000000000       0.000000000000000       0.500000000000000
%ENDBLOCK symmetry_ops

kpoint_mp_grid :    3   3   2

