# CELL file written 05:56:25 (GMT-0.0) 23rd February 2023 from run ButA2CsPb2I7-4

%BLOCK lattice_cart
   ANG
       4.50850874691039       -20.4664886983604        0.00000000000000    
       4.50850874691039        20.4664886983604        0.00000000000000    
       0.00000000000000        0.00000000000000        8.46840465293488    
%ENDBLOCK lattice_cart

%BLOCK cell_constraints
      1   1   3
      0   0   6
%ENDBLOCK cell_constraints

%BLOCK positions_frac
   H              0.796615711924975       0.025934464337668       0.646212281254212
   H              0.796615711924975       0.025934464337668       0.853787718745788
   H              0.974065535662331       0.203384288075025       0.146212281254212
   H              0.974065535662331       0.203384288075025       0.353787718745788
   H              0.714657825855647       0.069170571514130       0.645128848479493
   H              0.714657825855647       0.069170571514130       0.854871151520507
   H              0.930829428485870       0.285342174144353       0.145128848479493
   H              0.930829428485870       0.285342174144353       0.354871151520507
   H              0.350436653868773       0.216921001624326       0.750000000000000
   H              0.783078998375674       0.649563346131227       0.250000000000000
   H              0.893725006345189       0.801112020771694       0.151877362989767
   H              0.893725006345189       0.801112020771694       0.348122637010233
   H              0.198887979228306       0.106274993654812       0.651877362989767
   H              0.198887979228306       0.106274993654812       0.848122637010233
   H              0.410165592141364       0.372979269062101       0.645144178773809
   H              0.410165592141364       0.372979269062101       0.854855821226191
   H              0.627020730937898       0.589834407858636       0.145144178773808
   H              0.627020730937898       0.589834407858636       0.354855821226192
   H              0.144210347877732       0.176858511977779       0.645568736689933
   H              0.144210347877732       0.176858511977779       0.854431263310067
   H              0.823141488022221       0.855789652122268       0.145568736689933
   H              0.823141488022221       0.855789652122268       0.354431263310067
   H              0.768680420473496       0.889005931379221       0.750000000000000
   H              0.110994068620779       0.231319579526505       0.250000000000000
   H              0.366362194658877       0.454378771763057       0.646233645466792
   H              0.366362194658877       0.454378771763057       0.853766354533208
   H              0.545621228236943       0.633637805341123       0.146233645466792
   H              0.545621228236943       0.633637805341123       0.353766354533208
   H              0.239707191390260       0.397556818477129       0.145394174069898
   H              0.239707191390260       0.397556818477129       0.354605825930102
   H              0.602443181522871       0.760292808609740       0.645394174069899
   H              0.602443181522871       0.760292808609740       0.854605825930101
   H              0.740118941386805       0.899482655732517       0.145408868447706
   H              0.740118941386805       0.899482655732517       0.354591131552294
   H              0.100517344267484       0.259881058613196       0.645408868447706
   H              0.100517344267484       0.259881058613196       0.854591131552294
   H              0.573972869507479       0.770968793149728       0.250000000000000
   H              0.229031206850273       0.426027130492522       0.750000000000000
   H              0.196501952734795       0.481059034558204       0.145570591815498
   H              0.196501952734795       0.481059034558204       0.354429408184502
   H              0.518940965441796       0.803498047265205       0.645570591815499
   H              0.518940965441796       0.803498047265205       0.854429408184501
   H              0.142579822598866       0.552279822456833       0.151895714027544
   H              0.142579822598866       0.552279822456833       0.348104285972456
   H              0.447720177543167       0.857420177401136       0.651895714027544
   H              0.447720177543167       0.857420177401136       0.848104285972456
   H             -0.008753446274183       0.442071624346014       0.250000000000000
   H              0.557928375653985       1.008753446274183       0.750000000000000
   C              0.646346565725791      -0.003967192897268       0.750000000000000
   C              1.003967192897268       0.353653434274210       0.250000000000000
   C              0.695383383101732       0.663001249937691       0.250000000000000
   C              0.336998750062310       0.304616616898268       0.750000000000000
   C              0.217948602268946       0.248933215201085       0.750000000000000
   C              0.751066784798914       0.782051397731054       0.250000000000000
   C              0.291463162159557       0.381835731221291       0.750000000000000
   C              0.618164268778709       0.708536837840442       0.250000000000000
   C              0.165811072661063       0.328113410673555       0.250000000000000
   C              0.671886589326444       0.834188927338937       0.750000000000000
   C              0.670622192064980       0.825575495330414       0.250000000000000
   C              0.174424504669587       0.329377807935021       0.750000000000000
   C              0.724103056912088       0.951038131418148       0.750000000000000
   C              0.048961868581852       0.275896943087912       0.250000000000000
   C              0.122752556066952       0.409002504086768       0.250000000000000
   C              0.590997495913232       0.877247443933048       0.750000000000000
   N              0.266398752639673       0.175187876638236       0.750000000000000
   N              0.824812123361765       0.733601247360327       0.250000000000000
   N              0.074976063688012       0.483388944151728       0.250000000000000
   N              0.516611055848272       0.925023936311989       0.750000000000000
   I              0.748496769842083       0.251503230157918       0.000000000000000
   I              0.748496769842083       0.251503230157918       0.500000000000000
   I              0.456572600628019       0.115164024200790       0.250000000000000
   I              0.884835975799211       0.543427399371981       0.750000000000000
   I              0.592867749886859       0.407132250113141       0.000000000000000
   I              0.592867749886859       0.407132250113141       0.500000000000000
   I              0.211833110032387       0.177644608705371       0.250000000000000
   I              0.822355391294629       0.788166889967615       0.750000000000000
   I              0.129773550788437       0.481156177649624       0.750000000000000
   I              0.518843822350377       0.870226449211563       0.250000000000000
   I              0.233813001327324       0.766186998672675       0.000000000000000
   I              0.233813001327324       0.766186998672675       0.500000000000000
   I              0.107580096586160       0.892419903413841       0.000000000000000
   I              0.107580096586160       0.892419903413841       0.500000000000000
   Cs             0.892653900494516       0.551249216261636       0.250000000000000
   Cs             0.448750783738362       0.107346099505483       0.750000000000000
   Pb             0.847045408227458       0.663365544273132       0.750000000000000
   Pb             0.336634455726867       0.152954591772541       0.250000000000000
   Pb             0.004814579339406       0.505678294835168       0.750000000000000
   Pb             0.494321705164832       0.995185420660593       0.250000000000000
%ENDBLOCK positions_frac

FIX_COM : true

%BLOCK species_gamma
   radsectesla
   H          267522128.0    
%ENDBLOCK species_gamma

%BLOCK species_pot
   H       1|0.6|13|15|17|10(qc=8)
   C       2|1.4|10|12|13|20:21(qc=7)
   N       2|1.1|14|16|18|20:21(qc=7)
   I       2|2.0|5|6|7|50:51
   Cs      2|2.2|4|4|5|50U:60:51(qc=5)
   Pb      3|2.2|7|8|9|50U:60:51U:61:52
%ENDBLOCK species_pot

SYMMETRY_TOL :     0.001000

%BLOCK symmetry_ops
# Symm. op. 1       E
          1.000000000000000       0.000000000000000       0.000000000000000
          0.000000000000000       1.000000000000000       0.000000000000000
          0.000000000000000       0.000000000000000       1.000000000000000
          0.000000000000000       0.000000000000000       0.000000000000000
# Symm. op. 2       2
         -1.000000000000000       0.000000000000000       0.000000000000000
          0.000000000000000       1.000000000000000       0.000000000000000
          0.000000000000000       0.000000000000000      -1.000000000000000
          0.000000000000000       0.000000000000000       0.000000000000000
# Symm. op. 3       c
         -1.000000000000000       0.000000000000000       0.000000000000000
          0.000000000000000       1.000000000000000       0.000000000000000
          0.000000000000000       0.000000000000000       1.000000000000000
          0.000000000000000       0.000000000000000       0.500000000000000
# Symm. op. 4       m
          1.000000000000000       0.000000000000000       0.000000000000000
          0.000000000000000       1.000000000000000       0.000000000000000
          0.000000000000000       0.000000000000000      -1.000000000000000
          0.000000000000000       0.000000000000000       0.500000000000000
%ENDBLOCK symmetry_ops

kpoint_mp_grid :    3   3   2

