# CELL file written 20:04:55 (GMT-0.0) 13th March 2023 from run ButA2CsPb2I7-5

%BLOCK lattice_cart
   ANG
       4.52118469529141       -20.8048345958053        0.00000000000000    
       4.52118469529141        20.8048345958053        0.00000000000000    
       0.00000000000000        0.00000000000000        8.58815275876430    
%ENDBLOCK lattice_cart

%BLOCK cell_constraints
      1   1   3
      0   0   6
%ENDBLOCK cell_constraints

%BLOCK positions_frac
   H              0.795690036235746       0.023161348401564       0.647386432692711
   H              0.795690036235746       0.023161348401564       0.852613567307289
   H              0.976838651598436       0.204309963764254       0.147386432692711
   H              0.976838651598436       0.204309963764254       0.352613567307289
   H              0.712427838163060       0.062786233264751       0.646336343674961
   H              0.712427838163060       0.062786233264751       0.853663656325039
   H              0.937213766735249       0.287572161836940       0.146336343674961
   H              0.937213766735249       0.287572161836940       0.353663656325039
   H              0.341576914107202       0.214554434819176       0.750000000000000
   H              0.785445565180824       0.658423085892798       0.250000000000000
   H              0.895322673312729       0.809430588049021       0.153537507220098
   H              0.895322673312729       0.809430588049021       0.346462492779902
   H              0.190569411950979       0.104677326687271       0.653537507220098
   H              0.190569411950979       0.104677326687271       0.846462492779902
   H              0.404063080151507       0.371008270056193       0.646358663262853
   H              0.404063080151507       0.371008270056193       0.853641336737147
   H              0.628991729943807       0.595936919848493       0.146358663262853
   H              0.628991729943807       0.595936919848493       0.353641336737147
   H              0.140753998368996       0.177317940537119       0.646792123266031
   H              0.140753998368996       0.177317940537119       0.853207876733969
   H              0.822682059462881       0.859246001631005       0.146792123266031
   H              0.822682059462881       0.859246001631005       0.353207876733969
   H              0.769239869574751       0.888869925600611       0.750000000000000
   H              0.111130074399389       0.230760130425248       0.250000000000000
   H              0.364005730643236       0.454033129202827       0.647387647018259
   H              0.364005730643236       0.454033129202827       0.852612352981741
   H              0.545966870797172       0.635994269356764       0.147387647018259
   H              0.545966870797172       0.635994269356764       0.352612352981741
   H              0.239816424684493       0.396353689243234       0.146603726837516
   H              0.239816424684493       0.396353689243234       0.353396273162484
   H              0.603646310756766       0.760183575315507       0.646603726837515
   H              0.603646310756766       0.760183575315507       0.853396273162485
   H              0.738947281500294       0.899435134320356       0.146612788294040
   H              0.738947281500294       0.899435134320356       0.353387211705960
   H              0.100564865679643       0.261052718499706       0.646612788294040
   H              0.100564865679643       0.261052718499706       0.853387211705960
   H              0.573627039358859       0.771393987463237       0.250000000000000
   H              0.228606012536763       0.426372960641141       0.750000000000000
   H              0.200495396765118       0.481189954925718       0.146785339972448
   H              0.200495396765118       0.481189954925718       0.353214660027552
   H              0.518810045074282       0.799504603234882       0.646785339972448
   H              0.518810045074282       0.799504603234882       0.853214660027552
   H              0.150400081590571       0.553762250894800       0.153499363282749
   H              0.150400081590571       0.553762250894800       0.346500636717251
   H              0.446237749105200       0.849599918409429       0.653499363282748
   H              0.446237749105200       0.849599918409429       0.846500636717252
   H             -0.000702352629333       0.443690996748458       0.250000000000000
   H              0.556309003251542       1.000702352629333       0.750000000000000
   C              0.644749448552383      -0.010021738831492       0.750000000000000
   C              1.010021738831492       0.355250551447617       0.250000000000000
   C              0.696647597350686       0.668744075410020       0.250000000000000
   C              0.331255924589980       0.303352402649314       0.750000000000000
   C              0.214264765634677       0.248968754164333       0.750000000000000
   C              0.751031245835667       0.785735234365323       0.250000000000000
   C              0.289463403347770       0.382096759948975       0.750000000000000
   C              0.617903240051025       0.710536596652230       0.250000000000000
   C              0.166332091993667       0.327252399103833       0.250000000000000
   C              0.672747600896167       0.833667908006333       0.750000000000000
   C              0.669676046857326       0.825986377694929       0.250000000000000
   C              0.174013622305071       0.330323953142674       0.750000000000000
   C              0.723808508233348       0.948574973707015       0.750000000000000
   C              0.051425026292985       0.276191491766652       0.250000000000000
   C              0.126981454921911       0.409570675414141       0.250000000000000
   C              0.590429324585858       0.873018545078089       0.750000000000000
   N              0.258697492395743       0.173487875680282       0.750000000000000
   N              0.826512124319718       0.741302507604257       0.250000000000000
   N              0.082342764577997       0.484955106596095       0.250000000000000
   N              0.515044893403905       0.917657235422003       0.750000000000000
   I              0.756676890734725       0.243323109265275       0.000000000000000
   I              0.756676890734725       0.243323109265275       0.500000000000000
   I              0.484561288565702       0.143029834091189       0.250000000000000
   I              0.856970165908810       0.515438711434298       0.750000000000000
   I              0.584768326268705       0.415231673731295       0.000000000000000
   I              0.584768326268705       0.415231673731295       0.500000000000000
   I              0.199581734772770       0.161514976893276       0.250000000000000
   I              0.838485023106724       0.800418265227230       0.750000000000000
   I              0.141857517429418       0.496911208611995       0.750000000000000
   I              0.503088791388006       0.858142482570582       0.250000000000000
   I              0.234725082450703       0.765274917549297       0.000000000000000
   I              0.234725082450703       0.765274917549297       0.500000000000000
   I              0.106856974163861       0.893143025836139       0.000000000000000
   I              0.106856974163861       0.893143025836139       0.500000000000000
   Cs             0.913024657551337       0.571503887347335       0.250000000000000
   Cs             0.428496112652665       0.086975342448663       0.750000000000000
   Pb             0.844776117290102       0.659852585570132       0.750000000000000
   Pb             0.340147414429868       0.155223882709897       0.250000000000000
   Pb             0.001397016503063       0.503228832632146       0.750000000000000
   Pb             0.496771167367853       0.998602983496937       0.250000000000000
%ENDBLOCK positions_frac

FIX_COM : true

%BLOCK species_gamma
   radsectesla
   H          267522128.0    
%ENDBLOCK species_gamma

%BLOCK species_pot
   H       1|0.6|13|15|17|10(qc=8)
   C       2|1.4|10|12|13|20:21(qc=7)
   N       2|1.1|14|16|18|20:21(qc=7)
   I       2|2.0|5|6|7|50:51
   Cs      2|2.2|4|4|5|50U:60:51(qc=5)
   Pb      3|2.2|7|8|9|50U:60:51U:61:52
%ENDBLOCK species_pot

SYMMETRY_TOL :     0.001000

%BLOCK symmetry_ops
# Symm. op. 1       E
          1.000000000000000       0.000000000000000       0.000000000000000
          0.000000000000000       1.000000000000000       0.000000000000000
          0.000000000000000       0.000000000000000       1.000000000000000
          0.000000000000000       0.000000000000000       0.000000000000000
# Symm. op. 2       2
         -1.000000000000000       0.000000000000000       0.000000000000000
          0.000000000000000       1.000000000000000       0.000000000000000
          0.000000000000000       0.000000000000000      -1.000000000000000
          0.000000000000000       0.000000000000000       0.000000000000000
# Symm. op. 3       c
         -1.000000000000000       0.000000000000000       0.000000000000000
          0.000000000000000       1.000000000000000       0.000000000000000
          0.000000000000000       0.000000000000000       1.000000000000000
          0.000000000000000       0.000000000000000       0.500000000000000
# Symm. op. 4       m
          1.000000000000000       0.000000000000000       0.000000000000000
          0.000000000000000       1.000000000000000       0.000000000000000
          0.000000000000000       0.000000000000000      -1.000000000000000
          0.000000000000000       0.000000000000000       0.500000000000000
%ENDBLOCK symmetry_ops

kpoint_mp_grid :    3   3   2

