# CELL file written 10:28:51 (GMT-0.0) 23rd February 2023 from run ButA2CsPb2I7-5

%BLOCK lattice_cart
   ANG
       4.59877097110256       -21.5921723169367        0.00000000000000    
       4.59877097110256        21.5921723169367        0.00000000000000    
       0.00000000000000        0.00000000000000        8.71547883728257    
%ENDBLOCK lattice_cart

%BLOCK cell_constraints
      1   1   3
      0   0   6
%ENDBLOCK cell_constraints

%BLOCK positions_frac
   H              0.790946128725903       0.020328423707096       0.649059777042148
   H              0.790946128725903       0.020328423707096       0.850940222957852
   H              0.979671576292903       0.209053871274097       0.149059777042148
   H              0.979671576292903       0.209053871274097       0.350940222957852
   H              0.714145089499427       0.062214038951388       0.647979508383936
   H              0.714145089499427       0.062214038951388       0.852020491616064
   H              0.937785961048612       0.285854910500573       0.147979508383935
   H              0.937785961048612       0.285854910500573       0.352020491616065
   H              0.345906109747221       0.223666220567909       0.750000000000000
   H              0.776333779432090       0.654093890252779       0.250000000000000
   H              0.887284101085303       0.803761777624859       0.155043312435175
   H              0.887284101085303       0.803761777624859       0.344956687564825
   H              0.196238222375141       0.112715898914697       0.655043312435174
   H              0.196238222375141       0.112715898914697       0.844956687564826
   H              0.403119044116672       0.372539235309096       0.647973026181562
   H              0.403119044116672       0.372539235309096       0.852026973818438
   H              0.627460764690904       0.596880955883327       0.147973026181561
   H              0.627460764690904       0.596880955883327       0.352026973818439
   H              0.142910220344859       0.177814181877620       0.648472387062122
   H              0.142910220344859       0.177814181877620       0.851527612937878
   H              0.822185818122380       0.857089779655141       0.148472387062122
   H              0.822185818122380       0.857089779655141       0.351527612937878
   H              0.760313913235608       0.886322780325555       0.750000000000000
   H              0.113677219674444       0.239686086764392       0.250000000000000
   H              0.360059181219616       0.448162651837118       0.649049222263391
   H              0.360059181219616       0.448162651837118       0.850950777736609
   H              0.551837348162882       0.639940818780384       0.149049222263391
   H              0.551837348162882       0.639940818780384       0.350950777736609
   H              0.239040533390737       0.401453019130323       0.148189060143748
   H              0.239040533390737       0.401453019130323       0.351810939856252
   H              0.598546980869677       0.760959466609263       0.648189060143748
   H              0.598546980869677       0.760959466609263       0.851810939856252
   H              0.745092470575509       0.899768995808212       0.148183378686088
   H              0.745092470575509       0.899768995808212       0.351816621313913
   H              0.100231004191788       0.254907529424491       0.648183378686089
   H              0.100231004191788       0.254907529424491       0.851816621313911
   H              0.583573804649144       0.774916453316942       0.250000000000000
   H              0.225083546683058       0.416426195350856       0.750000000000000
   H              0.197547318705107       0.479693043791102       0.148462163397820
   H              0.197547318705107       0.479693043791102       0.351537836602180
   H              0.520306956208898       0.802452681294893       0.648462163397820
   H              0.520306956208898       0.802452681294893       0.851537836602180
   H              0.145458647301112       0.545994688489309       0.155063755109160
   H              0.145458647301112       0.545994688489309       0.344936244890840
   H              0.454005311510691       0.854541352698887       0.655063755109160
   H              0.454005311510691       0.854541352698887       0.844936244890840
   H             -0.004027464877003       0.435409657274853       0.250000000000000
   H              0.564590342725147       1.004027464877003       0.750000000000000
   C              0.647109266015770      -0.009285160076351       0.750000000000000
   C              1.009285160076351       0.352890733984230       0.250000000000000
   C              0.694628371965560       0.668343337786225       0.250000000000000
   C              0.331656662213775       0.305371628034440       0.750000000000000
   C              0.214990802642137       0.248519130668429       0.750000000000000
   C              0.751480869331571       0.785009197357863       0.250000000000000
   C              0.286973368971549       0.377084943867131       0.750000000000000
   C              0.622915056132869       0.713026631028451       0.250000000000000
   C              0.166983231006406       0.333142857564487       0.250000000000000
   C              0.666857142435514       0.833016768993594       0.750000000000000
   C              0.676687976100849       0.827741230935309       0.250000000000000
   C              0.172258769064691       0.323312023899151       0.750000000000000
   C              0.719947882597304       0.947194561174041       0.750000000000000
   C              0.052805438825959       0.280052117402696       0.250000000000000
   C              0.125430284591727       0.409074145125117       0.250000000000000
   C              0.590925854874883       0.874569715408273       0.750000000000000
   N              0.263043604625791       0.180573491300639       0.750000000000000
   N              0.819426508699360       0.736956395374209       0.250000000000000
   N              0.078580463282532       0.478171354876301       0.250000000000000
   N              0.521828645123699       0.921419536717469       0.750000000000000
   I              0.758744094050880       0.241255905949119       0.000000000000000
   I              0.758744094050880       0.241255905949119       0.500000000000000
   I              0.500214565748007       0.158810080670442       0.250000000000000
   I              0.841189919329558       0.499785434251994       0.750000000000000
   I              0.582634597212169       0.417365402787831       0.000000000000000
   I              0.582634597212169       0.417365402787831       0.500000000000000
   I              0.197333152379503       0.149237993132338       0.250000000000000
   I              0.850762006867662       0.802666847620498       0.750000000000000
   I              0.144223887817518       0.509528018071465       0.750000000000000
   I              0.490471981928535       0.855776112182482       0.250000000000000
   I              0.231502076064209       0.768497923935791       0.000000000000000
   I              0.231502076064209       0.768497923935791       0.500000000000000
   I              0.109781540007420       0.890218459992580       0.000000000000000
   I              0.109781540007420       0.890218459992580       0.500000000000000
   Cs             0.924931449915711       0.583500271061835       0.250000000000000
   Cs             0.416499728938166       0.075068550084288       0.750000000000000
   Pb             0.846436694009716       0.655964402248660       0.750000000000000
   Pb             0.344035597751340       0.153563305990284       0.250000000000000
   Pb            -0.002716732191882       0.505037833887609       0.750000000000000
   Pb             0.494962166112391       1.002716732191882       0.250000000000000
%ENDBLOCK positions_frac

FIX_COM : true

%BLOCK species_gamma
   radsectesla
   H          267522128.0    
%ENDBLOCK species_gamma

%BLOCK species_pot
   H       1|0.6|13|15|17|10(qc=8)
   C       2|1.4|10|12|13|20:21(qc=7)
   N       2|1.1|14|16|18|20:21(qc=7)
   I       2|2.0|5|6|7|50:51
   Cs      2|2.2|4|4|5|50U:60:51(qc=5)
   Pb      3|2.2|7|8|9|50U:60:51U:61:52
%ENDBLOCK species_pot

SYMMETRY_TOL :     0.001000

%BLOCK symmetry_ops
# Symm. op. 1       E
          1.000000000000000       0.000000000000000       0.000000000000000
          0.000000000000000       1.000000000000000       0.000000000000000
          0.000000000000000       0.000000000000000       1.000000000000000
          0.000000000000000       0.000000000000000       0.000000000000000
# Symm. op. 2       2
         -1.000000000000000       0.000000000000000       0.000000000000000
          0.000000000000000       1.000000000000000       0.000000000000000
          0.000000000000000       0.000000000000000      -1.000000000000000
          0.000000000000000       0.000000000000000       0.000000000000000
# Symm. op. 3       c
         -1.000000000000000       0.000000000000000       0.000000000000000
          0.000000000000000       1.000000000000000       0.000000000000000
          0.000000000000000       0.000000000000000       1.000000000000000
          0.000000000000000       0.000000000000000       0.500000000000000
# Symm. op. 4       m
          1.000000000000000       0.000000000000000       0.000000000000000
          0.000000000000000       1.000000000000000       0.000000000000000
          0.000000000000000       0.000000000000000      -1.000000000000000
          0.000000000000000       0.000000000000000       0.500000000000000
%ENDBLOCK symmetry_ops

kpoint_mp_grid :    3   2   3

